Mn3 Cu1 N1
1.0
   4.5101849999999999    0.0000000000000000    0.0000000000000000
   0.0000000000000000    4.5101849999999999    0.0000000000000000
   0.0000000000000000    0.0000000000000000    4.5101849999999999
Mn Cu N
3 1 1
direct
   0.5000000000000000    0.5000000000000000    0.0000000000000000 Mn
   0.5000000000000000    0.0000000000000000    0.5000000000000000 Mn
   0.0000000000000000    0.5000000000000000    0.5000000000000000 Mn
   0.5000000000000000    0.5000000000000000    0.5000000000000000 Cu
   0.0000000000000000    0.0000000000000000    0.0000000000000000 N
