Sr2 Zr2 O6
1.0
  -2.8848373199999999    2.8848353400000000    4.1842879699999997
   2.8848354100000000   -2.8848376600000001    4.1842882599999998
   2.8848376099999999    2.8848379500000001   -4.1842895799999997
Sr Zr O
2 2 6
direct
   0.2499999400000000    0.7499999700000000    0.5000000000000000 Sr
   0.7500000000000000    0.2500001700000000    0.5000001900000000 Sr
   0.4999998800000000    0.5000000999999999   -0.0000001100000000 Zr
   0.0000001900000000    0.0000000100000000    0.0000001500000000 Zr
   0.6917678400000000    0.1917678300000000    0.8835360900000000 O
   0.1917682000000000    0.3082316900000000    0.4999999000000000 O
   0.8082318200000000    0.6917682500000000    0.4999999900000000 O
   0.3082322000000000    0.8082321000000000    0.1164638100000000 O
   0.7500002500000000    0.7499996400000000   -0.0000000200000000 O
   0.2499996700000000    0.2500002400000000   -0.0000000100000000 O
