Tb4 Ga4 O12
1.0
   5.3209970000000002    0.0000000000000000    0.0000000000000000
   0.0000000000000000    5.6039500000000002    0.0000000000000000
   0.0000000000000000    0.0000000000000000    7.6595550000000001
Tb Ga O
4 4 12
direct
   0.0190580000000000    0.0661839999999990    0.7500000000000000 Tb
   0.4809420000000000    0.5661840000000000    0.7500000000000000 Tb
   0.5190580000000000    0.4338160000000000    0.2500000000000000 Tb
   0.9809420000000000    0.9338160000000000    0.2500000000000000 Tb
   0.0000000000000000    0.5000000000000000    0.5000000000000000 Ga
   0.5000000000000000    0.0000000000000000    0.5000000000000000 Ga
   0.5000000000000000    0.0000000000000000    0.0000000000000000 Ga
   0.0000000000000000    0.5000000000000000    0.0000000000000000 Ga
   0.1087849999999990    0.5374200000000000    0.2500000000000000 O
   0.1964310000000000    0.8019870000000000    0.5559539999999999 O
   0.1964310000000000    0.8019870000000000    0.9440459999999991 O
   0.3035690000000000    0.3019870000000000    0.9440459999999991 O
   0.3035690000000000    0.3019870000000000    0.5559539999999999 O
   0.3912150000000000    0.0374200000000000    0.2500000000000000 O
   0.6087850000000000    0.9625800000000001    0.7500000000000000 O
   0.6964310000000000    0.6980130000000000    0.0559540000000000 O
   0.6964310000000000    0.6980130000000000    0.4440460000000000 O
   0.8035690000000000    0.1980130000000000    0.4440460000000000 O
   0.8035690000000000    0.1980130000000000    0.0559540000000000 O
   0.8912150000000000    0.4625800000000000    0.7500000000000000 O
