Tl2 In2 Cl6
1.0
   7.4142896399999998   -0.2045926100000000   -0.0991100300000000
   3.4517929199999999    6.9351252600000004   -0.1987395800000000
   3.4946176599999998    1.9341883400000000    5.9006602700000004
Tl In Cl
2 2 6
direct
   0.9856519500000001    0.9662500500000000    0.0017873900000000 Tl
   0.4986016800000000    0.5246826200000000    0.5104639800000000 Tl
   0.2424922200000000    0.2453930900000000    0.2545097500000000 In
   0.7433562300000001    0.7447883700000000    0.7548621000000000 In
   0.5680467300000001    0.0569597200000000    0.8759072300000000 Cl
   0.9197761900000000    0.4319742900000000    0.6348224300000000 Cl
   0.4225115500000000    0.6116884300000001    0.0221122900000000 Cl
   0.0640182000000000    0.8775336900000000    0.4850206300000000 Cl
   0.5817823100000000    0.9161363100000001    0.4514144200000000 Cl
   0.9037589400000000    0.5745944200000001    0.0590997700000000 Cl
