Cs2 Zr2 Cu2 Se6
1.0
   3.9463619999999988    0.0000000000000000    0.0000000000000000
  -1.9731809999999990    8.1493929999999999    0.0000000000000000
   0.0000000000000000    0.0000000000000000   10.2862949999999991
Cs Zr Cu Se
2 2 2 6
direct
   0.2538490000000000    0.5076980000000000    0.2500000000000000 Cs
   0.7461510000000000    0.4923019999999990    0.7500000000000000 Cs
   0.0000000000000000    0.0000000000000000    0.5000000000000000 Zr
   0.0000000000000000    0.0000000000000000    0.0000000000000000 Zr
   0.4694350000000000    0.9388700000000001    0.7500000000000000 Cu
   0.5305650000000000    0.0611300000000000    0.2500000000000000 Cu
   0.3880949999999990    0.7761900000000000    0.5524280000000000 Se
   0.6119049999999990    0.2238100000000000    0.4475719999999990 Se
   0.9398620000000000    0.8797240000000000    0.2500000000000000 Se
   0.0601380000000000    0.1202760000000000    0.7500000000000000 Se
   0.3880949999999990    0.7761900000000000    0.9475720000000000 Se
   0.6119049999999990    0.2238100000000000    0.0524279999999990 Se
