Mn12 Si4 Ni4
1.0
   6.0535129999999997    0.0000000000000000    0.0000000000000000
   0.0000000000000000    6.0535129999999997    0.0000000000000000
   0.0000000000000000    0.0000000000000000    6.0535129999999997
Mn Si Ni
12 4 4
direct
   0.1232809999999990    0.2035980000000000    0.4547070000000000 Mn
   0.3767189999999990    0.7964019999999991    0.9547070000000000 Mn
   0.8767189999999990    0.7035979999999999    0.0452930000000000 Mn
   0.4547070000000000    0.1232809999999990    0.2035980000000000 Mn
   0.6232810000000000    0.2964020000000000    0.5452930000000000 Mn
   0.9547070000000000    0.3767189999999990    0.7964019999999991 Mn
   0.0452930000000000    0.8767189999999990    0.7035979999999999 Mn
   0.5452930000000000    0.6232810000000000    0.2964020000000000 Mn
   0.2035980000000000    0.4547070000000000    0.1232809999999990 Mn
   0.7035979999999999    0.0452930000000000    0.8767189999999990 Mn
   0.2964020000000000    0.5452930000000000    0.6232810000000000 Mn
   0.7964019999999991    0.9547070000000000    0.3767189999999990 Mn
   0.0627549999999990    0.0627549999999990    0.0627549999999990 Si
   0.4372450000000000    0.9372450000000000    0.5627550000000000 Si
   0.9372450000000000    0.5627550000000000    0.4372450000000000 Si
   0.5627550000000000    0.4372450000000000    0.9372450000000000 Si
   0.6867139999999990    0.6867139999999990    0.6867139999999990 Ni
   0.8132860000000000    0.3132860000000000    0.1867140000000000 Ni
   0.3132860000000000    0.1867140000000000    0.8132860000000000 Ni
   0.1867140000000000    0.8132860000000000    0.3132860000000000 Ni
