Li1 Er1 O3
1.0
   3.6554349999999989    0.0000000000000000    0.0000000000000000
   0.0000000000000000    3.6554349999999989    0.0000000000000000
   0.0000000000000000    0.0000000000000000    3.6554349999999989
Li Er O
1 1 3
direct
   0.0000000000000000    0.0000000000000000    0.0000000000000000 Li
   0.5000000000000000    0.5000000000000000    0.5000000000000000 Er
   0.0000000000000000    0.0000000000000000    0.5000000000000000 O
   0.0000000000000000    0.5000000000000000    0.0000000000000000 O
   0.5000000000000000    0.0000000000000000    0.0000000000000000 O
