Ba1 Tl3 Au1
1.0
   5.0624750000000001    0.0000000000000000    0.0000000000000000
   0.0000000000000000    5.0624750000000001    0.0000000000000000
   2.5312370000000000    2.5312370000000000    6.2564520000000003
Ba Tl Au
1 3 1
direct
   0.0045969999999990    0.0045969999999990    0.9908060000000000 Ba
   0.7416790000000000    0.2416789999999990    0.5166430000000000 Tl
   0.2416789999999990    0.7416790000000000    0.5166430000000000 Tl
   0.3940320000000000    0.3940320000000000    0.2119359999999990 Tl
   0.6180129999999990    0.6180129999999990    0.7639739999999990 Au
