Al4 Fe4 O12
1.0
   4.8861710000000000    0.0000000000000000    0.0000000000000000
   0.0000000000000000    4.9358380000000004    0.0000000000000000
   0.0000000000000000    0.0000000000000000    7.4387780000000001
Al Fe O
4 4 12
direct
   0.9942719999999990    0.4646679999999990    0.2500000000000000 Al
   0.4942720000000000    0.0353319999999990    0.7500000000000000 Al
   0.5057280000000000    0.9646680000000000    0.2500000000000000 Al
   0.0057280000000000    0.5353320000000000    0.7500000000000000 Al
   0.0000000000000000    0.0000000000000000    0.0000000000000000 Fe
   0.5000000000000000    0.5000000000000000    0.0000000000000000 Fe
   0.5000000000000000    0.5000000000000000    0.5000000000000000 Fe
   0.0000000000000000    0.0000000000000000    0.5000000000000000 Fe
   0.6642169999999999    0.8286249999999999    0.9223749999999999 O
   0.1642170000000000    0.6713749999999991    0.0776250000000000 O
   0.8357829999999991    0.3286250000000000    0.5776249999999991 O
   0.3357830000000000    0.1713750000000000    0.4223750000000000 O
   0.3357830000000000    0.1713750000000000    0.0776250000000000 O
   0.8357829999999991    0.3286250000000000    0.9223749999999999 O
   0.1642170000000000    0.6713749999999991    0.4223750000000000 O
   0.6642169999999999    0.8286249999999999    0.5776249999999991 O
   0.1415990000000000    0.8925569999999990    0.7500000000000000 O
   0.6415989999999990    0.6074430000000000    0.2500000000000000 O
   0.3584009999999990    0.3925570000000000    0.7500000000000000 O
   0.8584010000000000    0.1074430000000000    0.2500000000000000 O
