Ag4 As4 O12
1.0
   5.4150859999999996    5.5847179999999996    0.0000000000000000
  -5.4150859999999996    5.5847179999999996    0.0000000000000000
   0.0000000000000000    1.1054029999999999    5.0381619999999998
Ag As O
4 4 12
direct
   0.2263389999999990    0.7736609999999990    0.7500000000000000 Ag
   0.5961590000000000    0.4038410000000000    0.7500000000000000 Ag
   0.4038410000000000    0.5961590000000000    0.2500000000000000 Ag
   0.7736609999999990    0.2263389999999990    0.2500000000000000 Ag
   0.7006859999999990    0.8780070000000000    0.7705790000000000 As
   0.8780070000000000    0.7006859999999990    0.2705790000000000 As
   0.1219929999999990    0.2993139999999990    0.7294210000000000 As
   0.2993139999999990    0.1219929999999990    0.2294209999999990 As
   0.8891239999999990    0.8040959999999990    0.5585740000000000 O
   0.8040959999999990    0.8891239999999990    0.0585739999999990 O
   0.5456179999999990    0.7241000000000001    0.8268989999999991 O
   0.9152180000000000    0.3485620000000000    0.8424360000000000 O
   0.7241000000000001    0.5456179999999990    0.3268990000000000 O
   0.3485620000000000    0.9152180000000000    0.3424359999999990 O
   0.6514380000000000    0.0847820000000000    0.6575639999999990 O
   0.2759000000000000    0.4543819999999990    0.6731009999999999 O
   0.0847820000000000    0.6514380000000000    0.1575639999999990 O
   0.4543819999999990    0.2759000000000000    0.1731010000000000 O
   0.1959040000000000    0.1108759999999990    0.9414260000000000 O
   0.1108759999999990    0.1959040000000000    0.4414260000000000 O
