La4 Cr4 S12
1.0
   3.8173616400000001   -0.0000000000000000    0.0000000000000000
   0.0000000000000000    7.9028633199999998    0.0000000000000000
   0.0000000000000000    0.0000000000000000   13.1759556100000008
La Cr S
4 4 12
direct
   0.2500000000000000    0.0869692300000000    0.8283796800000001 La
   0.7500000000000000    0.9130307700000000    0.1716203200000000 La
   0.2500000000000000    0.5869692300000000    0.6716203200000000 La
   0.7500000000000000    0.4130307700000000    0.3283796800000000 La
   0.2500000000000000    0.3397577900000000    0.0525787500000000 Cr
   0.7500000000000000    0.6602422100000001    0.9474212500000000 Cr
   0.2500000000000000    0.8397577900000001    0.4474212500000000 Cr
   0.7500000000000000    0.1602422100000000    0.5525787500000000 Cr
   0.2500000000000000    0.4873183400000000    0.8949985200000000 S
   0.7500000000000000    0.5126816600000000    0.1050014800000000 S
   0.2500000000000000    0.9873183400000001    0.6050014800000000 S
   0.7500000000000000    0.0126816600000000    0.3949985200000000 S
   0.2500000000000000    0.3359458700000000    0.4943914600000000 S
   0.7500000000000000    0.6640541300000000    0.5056085400000000 S
   0.2500000000000000    0.8359458700000000    0.0056085400000000 S
   0.7500000000000000    0.1640541300000000    0.9943914600000000 S
   0.7500000000000000    0.3035311800000000    0.7120878400000000 S
   0.2500000000000000    0.6964688200000000    0.2879121600000000 S
   0.7500000000000000    0.8035311800000000    0.7879121600000000 S
   0.2500000000000000    0.1964688200000000    0.2120878400000000 S
