Ta1 Ti1 W1 C3
1.0
   1.5562070000000001   -2.6954289999999999    0.0000000000000000
   1.5562070000000001    2.6954289999999999    0.0000000000000000
   0.0000000000000000    0.0000000000000000    7.6386409999999998
Ta Ti W C
1 1 1 3
direct
   0.3333330000000000    0.6666670000000000    0.1697500000000000 Ta
   0.0000000000000000    0.0000000000000000    0.5020049999999990 Ti
   0.6666670000000000    0.3333330000000000    0.8289519999999990 W
   0.3333330000000000    0.6666670000000000    0.6669830000000000 C
   0.0000000000000000    0.0000000000000000    0.9953980000000000 C
   0.6666670000000000    0.3333330000000000    0.3369129999999990 C
