Sm1 Ga3 Ag1
1.0
   4.2236016699999999    0.0000000000000000   -0.0000000000000000
   0.0000000000000000    4.2236016699999999   -0.0000000000000000
   2.1118008300000000    2.1118008300000000    5.4264906000000002
Sm Ga Ag
1 3 1
direct
   0.0000000000000000   -0.0000000000000000   -0.0000000000000000 Sm
   0.2500000000000000    0.7500000000000000    0.5000000000000000 Ga
   0.3883522100000000    0.3883522100000000    0.2232955700000000 Ga
   0.6116477900000000    0.6116477900000000    0.7767044300000000 Ga
   0.7500000000000000    0.2500000000000000    0.5000000000000000 Ag
