Hg2 C2 Br6 N2
1.0
   4.0730069999999996   -7.7233700000000001    0.0000000000000000
   4.0730069999999996    7.7233700000000001    0.0000000000000000
   0.0000000000000000    0.0000000000000000    6.5524860000000000
Hg C Br N
2 2 6 2
direct
   0.5853389999999991    0.4146610000000000    0.7500000000000000 Hg
   0.4146610000000000    0.5853389999999991    0.2500000000000000 Hg
   0.9241410000000000    0.0758590000000000    0.7500000000000000 C
   0.0758590000000000    0.9241410000000000    0.2500000000000000 C
   0.4177110000000000    0.5822889999999999    0.7500000000000000 Br
   0.5822889999999999    0.4177110000000000    0.2500000000000000 Br
   0.9409339999999990    0.6096440000000000    0.7500000000000000 Br
   0.6096440000000000    0.9409339999999990    0.2500000000000000 Br
   0.0590660000000000    0.3903560000000000    0.2500000000000000 Br
   0.3903560000000000    0.0590660000000000    0.7500000000000000 Br
   0.8479690000000000    0.1520310000000000    0.7500000000000000 N
   0.1520310000000000    0.8479690000000000    0.2500000000000000 N
