K4 C4 O12
1.0
   5.3798515908628470    0.0000000000000000    0.0000000000000000
   0.0000000000000000    4.5335392810710946    0.3479434675761300
   0.0000000000000000    3.9681380109837021   13.8083200831424175
K C O
4 4 12
direct
   0.3726786239191640    0.5790802055706260    0.6198783659638061 K
   0.8726786239191641    0.4209197944293731    0.8801216340361930 K
   0.6273213760808360    0.4209197944293731    0.3801216340361930 K
   0.1273213760808360    0.5790802055706260    0.1198783659638060 K
   0.8708113841131251    0.0021832338511340    0.6168621642624430 C
   0.3708113841131250    0.9978167661488581    0.8831378357375571 C
   0.1291886158868740    0.9978167661488581    0.3831378357375571 C
   0.6291886158868740    0.0021832338511340    0.1168621642624350 C
   0.8779596378769551    0.7255812544978680    0.6808400255815591 O
   0.3779596378769550    0.2744187455021310    0.8191599744184400 O
   0.1220403621230510    0.2744187455021310    0.3191599744184400 O
   0.6220403621230440    0.7255812544978680    0.1808400255815590 O
   0.6663791117178021    0.1380656289745090    0.5844204401349130 O
   0.1663791117178020    0.8619343710254911    0.9155795598650861 O
   0.3336208882821970    0.8619343710254911    0.4155795598650860 O
   0.8336208882821970    0.1380656289745090    0.0844204401349130 O
   0.0769555780508490    0.1390990743397530    0.5847841061083080 O
   0.5769555780508491    0.8609009256602390    0.9152158938916911 O
   0.9230444219491500    0.8609009256602390    0.4152158938916911 O
   0.4230444219491500    0.1390990743397530    0.0847841061083080 O
