Yb1 Al3 Au1
1.0
  -2.0441234583714261    2.0441234583714261    5.6541920802388876
   2.0441234583714261   -2.0441234583714261    5.6541920802388876
   2.0441234583714261    2.0441234583714261   -5.6541920802388876
Yb Al Au
1 3 1
direct
   0.9941396780291071    0.9941396780291071    0.0000000000000000 Yb
   0.7485979683820501    0.2485979683820500    0.5000000000000000 Al
   0.2485979683820500    0.7485979683820501    0.5000000000000000 Al
   0.3965630317882820    0.3965630317882820    0.0000000000000000 Al
   0.6121013534184950    0.6121013534184950    0.0000000000000000 Au
