Al4 Cu4 O12
1.0
   6.7816669999999997    0.0000000000000000    0.0000000000000000
   0.0000000000000000    4.7091229999999999    0.0000000000000000
   0.0000000000000000    0.4909550000000000    6.2133830000000003
Al Cu O
4 4 12
direct
   0.1977560000000000    0.5184920000000000    0.7481110000000000 Al
   0.6977559999999990    0.4815080000000000    0.7518889999999990 Al
   0.3022440000000000    0.5184920000000000    0.2481110000000000 Al
   0.8022440000000000    0.4815080000000000    0.2518890000000000 Al
   0.0000000000000000    0.0000000000000000    0.5000000000000000 Cu
   0.5000000000000000    0.0000000000000000    0.5000000000000000 Cu
   0.0000000000000000    0.0000000000000000    0.0000000000000000 Cu
   0.5000000000000000    0.0000000000000000    0.0000000000000000 Cu
   0.6055809999999990    0.8511679999999990    0.7584620000000000 O
   0.8944190000000000    0.8511679999999990    0.2584619999999990 O
   0.1885200000000000    0.6952809999999990    0.0028369999999990 O
   0.3114800000000000    0.6952809999999990    0.5028370000000000 O
   0.9435709999999990    0.6607839999999990    0.6696710000000000 O
   0.5564290000000000    0.6607839999999990    0.1696710000000000 O
   0.4435710000000000    0.3392159999999990    0.8303290000000000 O
   0.0564290000000000    0.3392159999999990    0.3303290000000000 O
   0.6885200000000000    0.3047189999999990    0.4971629999999990 O
   0.8114800000000001    0.3047189999999990    0.9971629999999990 O
   0.1055810000000000    0.1488320000000000    0.7415379999999990 O
   0.3944189999999990    0.1488320000000000    0.2415380000000000 O
