Al4 Fe4 O12
1.0
   4.9823230000000001   -0.0098059999999990    0.0132870000000000
  -0.0103629999999990    5.0013139999999998   -0.0443000000000000
   0.0216729999999990   -0.0733780000000000    7.9430879999999995
Al Fe O
4 4 12
direct
   0.9816859999999999    0.9939070000000000    0.7532320000000000 Al
   0.4853670000000000    0.5078190000000000    0.2562709999999990 Al
   0.5147450000000000    0.4921009999999990    0.7430930000000000 Al
   0.0179390000000000    0.0063630000000000    0.2464370000000000 Al
   0.0003740000000000    0.5003919999999999    0.4999679999999990 Fe
   0.4998829999999990    0.0001619999999990    0.4999010000000000 Fe
   0.5000450000000000    0.9996710000000000    0.9998200000000000 Fe
   0.0000820000000000    0.4994760000000000    0.9999530000000000 Fe
   0.6559060000000000    0.3340960000000000    0.4213150000000000 O
   0.1575850000000000    0.1676310000000000    0.5899500000000001 O
   0.8456870000000000    0.8320639999999990    0.0745789999999990 O
   0.3371790000000000    0.6618700000000001    0.9141670000000000 O
   0.3436570000000000    0.6675829999999990    0.5791800000000000 O
   0.8427049999999990    0.8336180000000000    0.4104319999999990 O
   0.1538100000000000    0.1667460000000000    0.9257869999999990 O
   0.6635420000000000    0.3362110000000000    0.0858270000000000 O
   0.1494110000000000    0.3527679999999990    0.2598169999999990 O
   0.6420100000000001    0.1428520000000000    0.7537050000000000 O
   0.3577920000000000    0.8572569999999990    0.2462740000000000 O
   0.8505990000000000    0.6474130000000000    0.7402930000000000 O
