Na4 Fe4 F12
1.0
   5.4002412900000003   -0.0000000000000000    0.0000000000000000
  -0.0000000000000000    5.6749285900000004    0.0000000000000000
   0.0000000000000000    0.0000000000000000    7.7573492399999999
Na Fe F
4 4 12
direct
   0.9786426200000000    0.0698107000000000    0.2500000000000000 Na
   0.5213573800000000    0.5698107000000000    0.2500000000000000 Na
   0.0213573800000000    0.9301893000000000    0.7500000000000000 Na
   0.4786426200000000    0.4301893000000000    0.7500000000000000 Na
   0.0000000000000000    0.5000000000000000   -0.0000000000000000 Fe
   0.5000000000000000   -0.0000000000000000    0.5000000000000000 Fe
   0.0000000000000000    0.5000000000000000    0.5000000000000000 Fe
   0.5000000000000000   -0.0000000000000000   -0.0000000000000000 Fe
   0.1264747100000000    0.4521131600000000    0.2500000000000000 F
   0.3735252900000000    0.9521131600000000    0.2500000000000000 F
   0.8735252900000000    0.5478868400000000    0.7500000000000000 F
   0.6264747100000000    0.0478868400000000    0.7500000000000000 F
   0.6973440600000000    0.3111166700000000    0.0589334900000000 F
   0.8026559400000001    0.8111166700000000    0.4410665100000000 F
   0.3026559400000000    0.6888833300000000    0.5589334900000000 F
   0.1973440600000000    0.1888833300000000    0.9410665100000000 F
   0.3026559400000000    0.6888833300000000    0.9410665100000000 F
   0.1973440600000000    0.1888833300000000    0.5589334900000000 F
   0.6973440600000000    0.3111166700000000    0.4410665100000000 F
   0.8026559400000001    0.8111166700000000    0.0589334900000000 F
