Ba2 V2 S6
1.0
   3.3647233299999999   -5.8269095699999998   -0.0187542300000000
   3.3643585300000001    5.8266998000000001   -0.0031282500000000
  -0.0187212200000000    0.0077177100000000    5.7793554799999995
Ba V S
2 2 6
direct
   0.6666749400000000    0.3333352900000000    0.2499955300000000 Ba
   0.3333248100000000    0.6666646900000001    0.7500042400000000 Ba
  -0.0000000100000000   -0.0000007100000000    0.5000005000000000 V
   0.0000000800000000    0.0000009700000000    0.0000001600000000 V
   0.8377929200000001    0.6756311300000000    0.7508318600000000 S
   0.1621955400000000    0.8378276700000000    0.2494651700000000 S
   0.6756400100000001    0.8378140900000001    0.2512874200000000 S
   0.3243602600000000    0.1621867600000000    0.7487122800000000 S
   0.1622076100000000    0.3243685200000000    0.2491683600000000 S
   0.8378038400000000    0.1621716100000000    0.7505344700000001 S
