Li2 Os2 O6
1.0
   4.6795921900000002   -2.5291481600000001    0.0098375500000000
   4.6795922399999998    2.5291480800000001    0.0098374100000000
   3.3039374700000002    0.0000000800000000    4.1688446600000004
Li Os O
2 2 6
direct
   0.7148420800000000    0.7148420800000000    0.7148420800000000 Li
   0.2148413400000000    0.2148413400000000    0.2148413400000000 Li
   0.4994023300000000    0.4994023300000000    0.4994023300000000 Os
   0.9994067700000000    0.9994067700000000    0.9994067700000000 Os
   0.3820924900000000    0.1183709100000000    0.7574901400000000 O
   0.7574901400000000    0.3820924900000000    0.1183709100000000 O
   0.1183709100000000    0.7574901400000000    0.3820924900000000 O
   0.2574898200000000    0.6183666100000000    0.8820995100000000 O
   0.8820995100000000    0.2574898200000000    0.6183666100000000 O
   0.6183666100000000    0.8820995100000000    0.2574898200000000 O
