Sc4 Al4 O12
1.0
   4.9736399999999996    0.0000000000000000    0.0000000000000000
   0.0000000000000000    5.2642030000000002    0.0000000000000000
   0.0000000000000000    0.0000000000000000    7.2976950000000000
Sc Al O
4 4 12
direct
   0.4780410000000000    0.4316939999999990    0.7500000000000000 Sc
   0.9780409999999991    0.0683059999999990    0.2500000000000000 Sc
   0.0219590000000000    0.9316939999999990    0.7500000000000000 Sc
   0.5219590000000000    0.5683060000000000    0.2500000000000000 Sc
   0.5000000000000000    0.0000000000000000    0.0000000000000000 Al
   0.0000000000000000    0.5000000000000000    0.0000000000000000 Al
   0.0000000000000000    0.5000000000000000    0.5000000000000000 Al
   0.5000000000000000    0.0000000000000000    0.5000000000000000 Al
   0.1922660000000000    0.1950960000000000    0.9375580000000000 O
   0.6922659999999990    0.3049040000000000    0.0624420000000000 O
   0.3077340000000000    0.6950959999999990    0.5624420000000000 O
   0.8077340000000000    0.8049040000000000    0.4375580000000000 O
   0.8077340000000000    0.8049040000000000    0.0624420000000000 O
   0.3077340000000000    0.6950959999999990    0.9375580000000000 O
   0.6922659999999990    0.3049040000000000    0.4375580000000000 O
   0.1922660000000000    0.1950960000000000    0.5624420000000000 O
   0.1220580000000000    0.4544769999999990    0.2500000000000000 O
   0.6220580000000000    0.0455230000000000    0.7500000000000000 O
   0.3779420000000000    0.9544769999999990    0.2500000000000000 O
   0.8779420000000000    0.5455230000000000    0.7500000000000000 O
