Rb4 Cr4 Cl4 O12
1.0
   7.7647529999999998    0.0000000000000000    0.0000000000000000
   0.0000000000000000    8.2563110000000002    0.0000000000000000
   0.0000000000000000    0.1020700000000000    8.2856509999999997
Rb Cr Cl O
4 4 4 12
direct
   0.1430479999999990    0.3658940000000000    0.1850730000000000 Rb
   0.3569520000000000    0.8658939999999991    0.1850730000000000 Rb
   0.8569519999999990    0.6341059999999999    0.8149270000000000 Rb
   0.6430480000000000    0.1341060000000000    0.8149270000000000 Rb
   0.8744850000000000    0.8741620000000000    0.2222039999999990 Cr
   0.1255150000000000    0.1258380000000000    0.7777959999999990 Cr
   0.6255149999999990    0.3741620000000000    0.2222039999999990 Cr
   0.3744849999999990    0.6258380000000000    0.7777959999999990 Cr
   0.7762500000000001    0.3614380000000000    0.4453439999999990 Cl
   0.2237500000000000    0.6385620000000000    0.5546559999999990 Cl
   0.7237500000000000    0.8614379999999990    0.4453439999999990 Cl
   0.2762500000000000    0.1385620000000000    0.5546559999999990 Cl
   0.4999740000000000    0.5313300000000001    0.2261810000000000 O
   0.7395820000000000    0.8871859999999990    0.0716649999999990 O
   0.9999739999999990    0.9686700000000000    0.7738189999999990 O
   0.9907910000000000    0.7111200000000001    0.2066289999999990 O
   0.2395820000000000    0.6128140000000000    0.9283349999999990 O
   0.4907910000000000    0.7888800000000000    0.7933709999999990 O
   0.0000260000000000    0.0313300000000000    0.2261810000000000 O
   0.5000260000000000    0.4686700000000000    0.7738189999999990 O
   0.0092090000000000    0.2888800000000000    0.7933709999999990 O
   0.5092090000000000    0.2111200000000000    0.2066289999999990 O
   0.2604180000000000    0.1128140000000000    0.9283349999999990 O
   0.7604179999999990    0.3871860000000000    0.0716649999999990 O
