Ba1 Mg1 V1 O3
1.0
   4.5444401299999999    0.3207506100000000    0.3307602100000000
   0.3207506100000000    4.5444401299999999    0.3307602100000000
   0.3312616400000000    0.3312616400000000    4.5798422700000003
Ba Mg V O
1 1 1 3
direct
   0.8999763400000000    0.8999763400000000    0.9019319200000000 Ba
   0.2580343800000000    0.2580343800000000    0.2631122300000000 Mg
   0.5413379900000000    0.5413379900000000    0.5451290600000001 V
   0.5169416999999999    0.0187077300000000    0.5186776600000000 O
   0.0187077300000000    0.5169416999999999    0.5186776600000000 O
   0.5150018500000000    0.5150018500000000    0.0191384700000000 O
