Al2 Co2 O6
1.0
  -2.2536649999999998    4.2908980000000003    0.0271369999999990
  -3.1776870000000002   -4.3226730000000000    0.1111530000000000
  -2.3754759999999999    1.5385599999999999    4.0451199999999998
Al Co O
2 2 6
direct
   0.3082570000000000    0.4593160000000000    0.8482130000000000 Al
   0.6954389999999990    0.5473910000000000    0.1505700000000000 Al
   0.3117060000000000    0.9483130000000000    0.3368500000000000 Co
   0.6870000000000001    0.0653810000000000    0.6618029999999990 Co
   0.8114270000000000    0.7413980000000000    0.7497010000000000 O
   0.8133579999999990    0.2540880000000000    0.9594870000000000 O
   0.4880900000000000    0.7310129999999990    0.4341580000000000 O
   0.5009230000000000    0.2753770000000000    0.5669900000000000 O
   0.1791700000000000    0.7275880000000000    0.0508249999999990 O
   0.2046289999999990    0.2501359999999990    0.2414009999999990 O
