Li12 Fe12 O36
1.0
   4.2792190000000003    7.5718090000000000    0.0000000000000000
  -4.2792190000000003    7.5718090000000000    0.0000000000000000
   0.0000000000000000    1.5114850000000000    9.7792879999999993
Li Fe O
12 12 36
direct
   0.9947840000000000    0.6754979999999990    0.4945710000000000 Li
   0.8687100000000001    0.8687100000000001    0.0423110000000000 Li
   0.7220170000000000    0.7220170000000000    0.9264549999999990 Li
   0.6754979999999990    0.9947840000000000    0.4945710000000000 Li
   0.6485100000000000    0.6485100000000000    0.4791390000000000 Li
   0.5363310000000000    0.5363310000000000    0.0409529999999990 Li
   0.4365040000000000    0.4365040000000000    0.5605200000000000 Li
   0.3873830000000000    0.3873830000000000    0.9306719999999991 Li
   0.2012280000000000    0.2012280000000000    0.0398120000000000 Li
   0.2278089999999990    0.2278089999999990    0.4325670000000000 Li
   0.0539949999999990    0.0539949999999990    0.9291879999999991 Li
   0.0135310000000000    0.0135310000000000    0.5139610000000000 Li
   0.9186010000000000    0.5803039999999990    0.2481690000000000 Fe
   0.9114840000000000    0.2520620000000000    0.2517250000000000 Fe
   0.7437300000000001    0.0815790000000000    0.7498429999999990 Fe
   0.7504409999999990    0.4101960000000000    0.7467570000000000 Fe
   0.5803039999999990    0.9186010000000000    0.2481690000000000 Fe
   0.5852039999999999    0.2485270000000000    0.2498429999999990 Fe
   0.4101960000000000    0.7504409999999990    0.7467570000000000 Fe
   0.4134759999999990    0.0777760000000000    0.7475109999999990 Fe
   0.2485270000000000    0.5852039999999999    0.2498429999999990 Fe
   0.2520620000000000    0.9114840000000000    0.2517250000000000 Fe
   0.0815790000000000    0.7437300000000001    0.7498429999999990 Fe
   0.0777760000000000    0.4134759999999990    0.7475109999999990 Fe
   0.9822679999999990    0.6129930000000000    0.8544769999999990 O
   0.9400949999999991    0.9400949999999991    0.8610249999999990 O
   0.9472959999999990    0.3151500000000000    0.8546680000000000 O
   0.8817969999999991    0.5101380000000000    0.6404210000000000 O
   0.8885409999999990    0.8885409999999990    0.6309080000000000 O
   0.8419430000000000    0.2122109999999990    0.6436700000000001 O
   0.8195350000000000    0.4509860000000000    0.3556149999999990 O
   0.7748100000000001    0.7748100000000001    0.3667550000000000 O
   0.7813770000000000    0.1504560000000000    0.3595470000000000 O
   0.6481479999999999    0.2809939999999990    0.8545889999999990 O
   0.7295670000000000    0.7295670000000000    0.1311320000000000 O
   0.7198209999999990    0.3408520000000000    0.1439310000000000 O
   0.6078830000000000    0.6078830000000000    0.8583200000000001 O
   0.6129930000000000    0.9822679999999990    0.8544769999999990 O
   0.6740030000000000    0.0536300000000000    0.1437000000000000 O
   0.5516710000000000    0.5516710000000000    0.6370160000000000 O
   0.5490180000000000    0.1749320000000000    0.6396180000000000 O
   0.5101380000000000    0.8817969999999991    0.6404210000000000 O
   0.4866240000000000    0.1146669999999990    0.3587829999999990 O
   0.4509860000000000    0.8195350000000000    0.3556149999999990 O
   0.4439289999999990    0.4439289999999990    0.3589730000000000 O
   0.3151500000000000    0.9472959999999990    0.8546680000000000 O
   0.3851139999999990    0.0080520000000000    0.1444000000000000 O
   0.3951730000000000    0.3951730000000000    0.1325080000000000 O
   0.2809939999999990    0.6481479999999999    0.8545889999999990 O
   0.2750450000000000    0.2750450000000000    0.8592900000000001 O
   0.3408520000000000    0.7198209999999990    0.1439310000000000 O
   0.2122109999999990    0.8419430000000000    0.6436700000000001 O
   0.2194170000000000    0.2194170000000000    0.6378720000000000 O
   0.1749320000000000    0.5490180000000000    0.6396180000000000 O
   0.1504560000000000    0.7813770000000000    0.3595470000000000 O
   0.1116930000000000    0.1116930000000000    0.3604790000000000 O
   0.1146669999999990    0.4866240000000000    0.3587829999999990 O
   0.0536300000000000    0.6740030000000000    0.1437000000000000 O
   0.0616330000000000    0.0616330000000000    0.1341290000000000 O
   0.0080520000000000    0.3851139999999990    0.1444000000000000 O
