K4 Cd4 Cl12
1.0
   4.0136526699999999    0.0000000000000000    0.0000000000000000
   0.0000000000000000    8.8506414600000003    0.0000000000000000
   0.0000000000000000    0.0000000000000000   14.6107019000000005
K Cd Cl
4 4 12
direct
   0.2500000000000000    0.9284409600000000    0.6779296200000000 K
   0.7500000000000000    0.0715590400000000    0.3220703800000000 K
   0.2500000000000000    0.4284409600000000    0.8220703800000000 K
   0.7500000000000000    0.5715590400000000    0.1779296200000000 K
   0.7500000000000000    0.3282759600000000    0.5545793700000000 Cd
   0.2500000000000000    0.6717240400000000    0.4454206300000000 Cd
   0.7500000000000000    0.8282759600000000    0.9454206300000000 Cd
   0.2500000000000000    0.1717240400000000    0.0545793700000000 Cd
   0.7500000000000000    0.4794570999999990    0.3969883999999990 Cl
   0.2500000000000000    0.5205429000000000    0.6030116000000000 Cl
   0.7500000000000000    0.9794571000000000    0.1030116000000000 Cl
   0.2500000000000000    0.0205429000000000    0.8969883999999990 Cl
   0.2500000000000000    0.1644247500000000    0.4889791800000000 Cl
   0.7500000000000000    0.8355752500000000    0.5110208200000000 Cl
   0.2500000000000000    0.6644247500000000    0.0110208200000000 Cl
   0.7500000000000000    0.3355752500000000    0.9889791800000001 Cl
   0.2500000000000000    0.2923724200000000    0.2112113200000000 Cl
   0.7500000000000000    0.7076275800000000    0.7887886800000000 Cl
   0.2500000000000000    0.7923724200000000    0.2887886800000000 Cl
   0.7500000000000000    0.2076275800000000    0.7112113200000000 Cl
