Na8 Nb8 O24
1.0
   5.5248727999999998    0.0000000000000000    0.0000000000000000
  -0.0000000000000000    5.6112517000000004    0.0000000000000000
   0.0000000000000000    0.0000000000000000   15.5467128599999995
Na Nb O
8 8 24
direct
   0.2572435800000000    0.2500000000000000    0.0000000000000000 Na
   0.7427564200000000    0.7500000000000000    0.5000000000000000 Na
   0.7427564200000000    0.7500000000000000    0.0000000000000000 Na
   0.2572435800000000    0.2500000000000000    0.5000000000000000 Na
   0.2587665700000000    0.2010308999999990    0.2500000000000000 Na
   0.2587665700000000    0.2989691000000000    0.7500000000000000 Na
   0.7412334300000000    0.7010309000000000    0.2500000000000000 Na
   0.7412334300000000    0.7989691000000000    0.7500000000000000 Na
   0.2438624300000000    0.7244714100000000    0.1252944400000000 Nb
   0.2438624300000000    0.7755285900000000    0.8747055600000000 Nb
   0.7561375700000000    0.2244714100000000    0.3747055600000000 Nb
   0.7561375700000000    0.2755285900000000    0.6252944400000000 Nb
   0.7561375700000000    0.2755285900000000    0.8747055600000000 Nb
   0.7561375700000000    0.2244714100000000    0.1252944400000000 Nb
   0.2438624300000000    0.7755285900000000    0.6252944400000000 Nb
   0.2438624300000000    0.7244714100000000    0.3747055600000000 Nb
   0.0446035600000000    0.0471539999999990    0.3933878400000000 O
   0.0446035600000000    0.4528459999999990    0.6066121600000001 O
   0.9553964400000000    0.5471540000000000    0.1066121600000000 O
   0.9553964400000000    0.9528460000000000    0.8933878400000000 O
   0.9553964400000000    0.9528460000000000    0.6066121600000001 O
   0.9553964400000000    0.5471540000000000    0.3933878400000000 O
   0.0446035600000000    0.4528459999999990    0.8933878400000000 O
   0.0446035600000000    0.0471539999999990    0.1066121600000000 O
   0.4548539500000000    0.4620512100000000    0.3555873700000000 O
   0.4548539500000000    0.0379487900000000    0.6444126300000000 O
   0.5451460500000000    0.9620512100000000    0.1444126300000000 O
   0.5451460500000000    0.5379487900000001    0.8555873700000001 O
   0.5451460500000000    0.5379487900000001    0.6444126300000000 O
   0.5451460500000000    0.9620512100000000    0.3555873700000000 O
   0.4548539500000000    0.0379487900000000    0.8555873700000001 O
   0.4548539500000000    0.4620512100000000    0.1444126300000000 O
   0.6769905600000000    0.2500000000000000    0.0000000000000000 O
   0.3230094400000000    0.7500000000000000    0.5000000000000000 O
   0.3230094400000000    0.7500000000000000    0.0000000000000000 O
   0.6769905600000000    0.2500000000000000    0.5000000000000000 O
   0.1752592000000000    0.7779279900000000    0.2500000000000000 O
   0.1752592000000000    0.7220720100000000    0.7500000000000000 O
   0.8247407999999991    0.2779279900000000    0.2500000000000000 O
   0.8247407999999991    0.2220720100000000    0.7500000000000000 O
