H4 C4 N12 O4
1.0
  12.6854019999999998    0.0000000000000000    0.0000000000000000
   0.0000000000000000    4.2531369999999997    0.0000000000000000
  -2.2809439999999999    0.0000000000000000    7.6484889999999996
H C N O
4 4 12 4
direct
   0.9009000000000000    0.9246449999999991    0.8188970000000000 H
   0.9009000000000000    0.0753549999999990    0.3188970000000000 H
   0.7127180000000000    0.5790810000000000    0.4684979999999990 H
   0.7127180000000000    0.4209190000000000    0.9684980000000000 H
   0.9576220000000000    0.7910550000000000    0.7639640000000000 C
   0.9576220000000000    0.2089450000000000    0.2639640000000000 C
   0.6567109999999990    0.7090259999999990    0.3595930000000000 C
   0.6567109999999990    0.2909740000000000    0.8595929999999991 C
   0.0688520000000000    0.8627549999999991    0.8560510000000000 N
   0.0688520000000000    0.1372450000000000    0.3560510000000000 N
   0.1384830000000000    0.7190470000000000    0.8026380000000000 N
   0.1384830000000000    0.2809530000000000    0.3026379999999990 N
   0.2068219999999990    0.5956400000000001    0.7611600000000001 N
   0.2068219999999990    0.4043600000000001    0.2611600000000000 N
   0.5451480000000000    0.6348549999999999    0.3471570000000000 N
   0.5451480000000000    0.3651450000000000    0.8471569999999990 N
   0.4762220000000000    0.7768379999999990    0.2285039999999990 N
   0.4762220000000000    0.2231620000000000    0.7285039999999990 N
   0.4087210000000000    0.8989020000000000    0.1232200000000000 N
   0.4087210000000000    0.1010980000000000    0.6232200000000000 N
   0.9293830000000000    0.6089720000000000    0.6414800000000001 O
   0.9293830000000000    0.3910280000000000    0.1414800000000000 O
   0.6858679999999990    0.8905379999999991    0.2634880000000000 O
   0.6858679999999990    0.1094619999999990    0.7634879999999991 O
