La4 Cr4 N12
1.0
   5.1008359199999997    5.0893794200000002   -0.0301067400000000
  -5.1008359199999997    5.0893794200000002   -0.0301067400000000
   0.0000000000000000    1.6894367699999999    5.7134098099999999
La Cr N
4 4 12
direct
   0.3356991800000000    0.6643008200000000    0.7500000000000000 La
   0.6643008200000000    0.3356991800000000    0.2500000000000000 La
   0.0972521400000000    0.9027478600000001    0.2500000000000000 La
   0.9027478600000001    0.0972521400000000    0.7500000000000000 La
   0.3729444700000000    0.1993580600000000    0.7579825700000000 Cr
   0.6270555300000000    0.8006419400000000    0.2420174300000000 Cr
   0.8006419400000000    0.6270555300000000    0.7420174300000000 Cr
   0.1993580600000000    0.3729444700000000    0.2579825700000000 Cr
  -0.0024991300000000    0.7696364700000000    0.6624204400000000 N
   0.8562235700000000    0.4099331800000000    0.8414937000000000 N
   0.7696364700000000   -0.0024991300000000    0.1624204400000000 N
   0.1437764300000000    0.5900668200000000    0.1585063000000000 N
   0.0024991300000000    0.2303635300000000    0.3375795600000000 N
   0.2303635300000000    0.0024991300000000    0.8375795600000000 N
   0.5900668200000000    0.1437764300000000    0.6585063000000000 N
   0.6392230100000000    0.6835710500000001    0.9886540900000000 N
   0.3607769900000000    0.3164289500000000    0.0113459100000000 N
   0.4099331800000000    0.8562235700000000    0.3414937000000000 N
   0.6835710500000001    0.6392230100000000    0.4886540900000000 N
   0.3164289500000000    0.3607769900000000    0.5113459100000000 N
