Ca2 Ir2 O6
1.0
   1.8326970000000000   -6.2810709999999998    0.0000000000000000
   1.8326970000000000    6.2810709999999998    0.0000000000000000
   0.0000000000000000    0.0000000000000000    5.5916990000000002
Ca Ir O
2 2 6
direct
   0.6983650000000000    0.3016350000000000    0.7500000000000000 Ca
   0.3016350000000000    0.6983650000000000    0.2500000000000000 Ca
   0.0000000000000000    0.0000000000000000    0.0000000000000000 Ir
   0.0000000000000000    0.0000000000000000    0.5000000000000000 Ir
   0.5046020000000000    0.4953980000000000    0.7500000000000000 O
   0.4953980000000000    0.5046020000000000    0.2500000000000000 O
   0.8486349999999990    0.1513650000000000    0.0017209999999990 O
   0.1513650000000000    0.8486349999999990    0.9982789999999990 O
   0.8486349999999990    0.1513650000000000    0.4982789999999990 O
   0.1513650000000000    0.8486349999999990    0.5017210000000000 O
