Hg2 As2 O6
1.0
   4.8669370299999999    0.0000000000000000   -0.0000000000000000
  -2.4334690100000000    4.2148912799999998    0.0000000000000000
  -0.0000000000000000    0.0000000000000000    7.6934278400000000
Hg As O
2 2 6
direct
  -0.0000000000000000   -0.0000000000000000    0.8333425700000000 Hg
  -0.0000000000000000   -0.0000000000000000    0.1666574300000000 Hg
   0.3333330000000000    0.6666670000000000    0.5000000000000000 As
   0.6666670000000000    0.3333330000000000    0.5000000000000000 As
   0.3785489999999990    0.0000000000000000    0.6333672300000001 O
   0.0000000000000000    0.3785489999999990    0.6333672300000001 O
   0.6214510000000000    0.6214510000000000    0.6333672300000001 O
  -0.0000000000000000    0.6214510000000000    0.3666327700000000 O
   0.3785489999999990    0.3785489999999990    0.3666327700000000 O
   0.6214510000000000   -0.0000000000000000    0.3666327700000000 O
