Li4 Fe4 B4 O12
1.0
   5.7003820000000003   -0.0009180000000000   -0.2841170000000000
  -0.0011740000000000    7.4009400000000003    0.0009609999999990
   1.8232180000000000    0.0004950000000000    6.4163040000000002
Li Fe B O
4 4 4 12
direct
   0.1038380000000000    0.2757360000000000    0.7542240000000000 Li
   0.3962489999999990    0.7744529999999999    0.7455410000000000 Li
   0.6037380000000000    0.2255220000000000    0.2544450000000000 Li
   0.8961580000000000    0.7242750000000000    0.2458010000000000 Li
   0.2685730000000000    0.5118960000000000    0.4100600000000000 Fe
   0.7314480000000000    0.4880850000000000    0.5899510000000000 Fe
   0.2316720000000000    0.0110169999999990    0.0894730000000000 Fe
   0.7683059999999990    0.9889990000000000    0.9105150000000000 Fe
   0.0665110000000000    0.3280119999999990    0.1755800000000000 B
   0.4338869999999990    0.8280649999999991    0.3242580000000000 B
   0.5661000000000000    0.1719330000000000    0.6757300000000001 B
   0.9334990000000000    0.6719910000000000    0.8244300000000001 B
   0.9683970000000000    0.1998980000000000    0.0653280000000000 O
   0.5332709999999991    0.7006629999999990    0.4341980000000000 O
   0.4667300000000000    0.2993280000000000    0.5657759999999999 O
   0.0315710000000000    0.8001239999999999    0.9346890000000000 O
   0.0702740000000000    0.5371469999999990    0.7112290000000000 O
   0.5683779999999991    0.9643600000000001    0.2114800000000000 O
   0.4316170000000000    0.0356309999999990    0.7884970000000000 O
   0.9297860000000000    0.4628670000000000    0.2888050000000000 O
   0.3069060000000000    0.3160820000000000    0.1816750000000000 O
   0.1937559999999990    0.8140360000000000    0.3174000000000000 O
   0.8062269999999990    0.1859859999999990    0.6826110000000000 O
   0.6931090000000000    0.6838949999999990    0.8183070000000000 O
