Gd4 Mn4 O12
1.0
   0.0000000000000000    0.0000000000000000    5.3326696699999996
   5.6353168900000004    0.0000000000000000   -0.0000000000000000
   0.0000000000000000    7.6200618599999999    0.0000000000000000
Gd Mn O
4 4 12
direct
   0.5161264500000000    0.5658717999999990    0.2500000000000000 Gd
   0.9838735500000000    0.0658718000000000    0.2500000000000000 Gd
   0.4838735500000000    0.4341281999999990    0.7500000000000000 Gd
   0.0161264500000000    0.9341282000000000    0.7500000000000000 Gd
   0.5000000000000000   -0.0000000000000000   -0.0000000000000000 Mn
  -0.0000000000000000    0.5000000000000000    0.5000000000000000 Mn
   0.5000000000000000   -0.0000000000000000    0.5000000000000000 Mn
  -0.0000000000000000    0.5000000000000000   -0.0000000000000000 Mn
   0.4011589500000000    0.9705682100000000    0.2500000000000000 O
   0.0988410500000000    0.4705682100000000    0.2500000000000000 O
   0.5988410500000000    0.0294317900000000    0.7500000000000000 O
   0.9011589500000000    0.5294317900000000    0.7500000000000000 O
   0.7964367999999999    0.8055999700000001    0.0507227500000000 O
   0.7035631999999991    0.3055999700000000    0.4492772500000000 O
   0.2035632000000000    0.1944000300000000    0.5507227500000000 O
   0.2964368000000000    0.6944000300000001    0.9492772500000001 O
   0.2035632000000000    0.1944000300000000    0.9492772500000001 O
   0.2964368000000000    0.6944000300000001    0.5507227500000000 O
   0.7964367999999999    0.8055999700000001    0.4492772500000000 O
   0.7035631999999991    0.3055999700000000    0.0507227500000000 O
