Ho4 Al4 O12
1.0
   5.1452228800000004   -0.0000000000000000    0.0000000000000000
   0.0000000000000000    5.3135455000000000    0.0000000000000000
   0.0000000000000000    0.0000000000000000    7.3511827900000002
Ho Al O
4 4 12
direct
   0.0132943500000000    0.9445695400000000    0.7500000000000000 Ho
   0.5132943500000000    0.5554304600000000    0.2500000000000000 Ho
   0.4867056500000000    0.4445695400000000    0.7500000000000000 Ho
   0.9867056500000000    0.0554304600000000    0.2500000000000000 Ho
   0.5000000000000000   -0.0000000000000000    0.5000000000000000 Al
   0.0000000000000000    0.5000000000000000    0.5000000000000000 Al
   0.0000000000000000    0.5000000000000000    0.0000000000000000 Al
   0.5000000000000000   -0.0000000000000000    0.0000000000000000 Al
   0.7044979300000000    0.2948812700000000    0.4538012700000000 O
   0.2044979300000000    0.2051187300000000    0.5461987300000000 O
   0.7955020700000001    0.7948812700000000    0.0461987300000000 O
   0.2955020700000000    0.7051187300000000    0.9538012700000000 O
   0.2955020700000000    0.7051187300000000    0.5461987300000000 O
   0.7955020700000001    0.7948812700000000    0.4538012700000000 O
   0.2044979300000000    0.2051187300000000    0.9538012700000000 O
   0.7044979300000000    0.2948812700000000    0.0461987300000000 O
   0.0877748400000000    0.4764425700000000    0.2500000000000000 O
   0.5877748400000000    0.0235574300000000    0.7500000000000000 O
   0.4122251600000000    0.9764425700000000    0.2500000000000000 O
   0.9122251600000000    0.5235574300000000    0.7500000000000000 O
