Eu4 Zr4 O12
1.0
  -0.0000005400000000   -0.0000045800000000    5.7454658099999998
   5.8447403300000005   -0.0000027400000000    0.0000004400000000
  -0.0000038400000000    8.1659234000000005   -0.0000096100000000
Eu Zr O
4 4 12
direct
   0.0114966400000000    0.5437033700000000    0.2500000900000000 Eu
   0.5114857800000000    0.9562923200000000    0.7499998200000000 Eu
   0.4884990999999990    0.0436865300000000    0.2500010500000000 Eu
   0.9885059200000000    0.4563092100000000    0.7499973400000001 Eu
   0.0000097000000000   -0.0000098300000000   -0.0000146500000000 Zr
   0.5000007600000000    0.5000217000000000    0.5000220300000000 Zr
   0.0000035800000000   -0.0000045000000000    0.5000170100000000 Zr
   0.4999954200000000    0.5000204100000000   -0.0000232600000000 Zr
   0.5873811100000000    0.4759048600000000    0.2499958900000000 O
   0.9126209900000000    0.9759152900000000    0.2500056700000000 O
   0.4126296800000000    0.5240880200000000    0.7500046100000000 O
   0.0873756200000000    0.0240831400000000    0.7499947100000001 O
   0.2098680200000000    0.2890925400000000    0.0469465800000000 O
   0.2901367800000000    0.7890963700000000    0.4530510100000000 O
   0.7901461600000000    0.7109142100000000    0.5469317900000000 O
   0.7098541900000001    0.2109195600000000    0.9530638800000000 O
   0.7901311500000000    0.7109047300000000    0.9530623800000000 O
   0.7098642600000000    0.2109049700000000    0.5469353700000000 O
   0.2098521100000000    0.2890806500000000    0.4530600300000000 O
   0.2901460500000000    0.7890784400000000    0.0469486500000000 O
