Ce8 Ge24 Ru8
1.0
   9.0340278699999992   -0.0000000000000000   -0.0000000000000000
  -0.0000000000000000    9.0340278699999992    0.0000000000000000
   0.0000000000000000    0.0000000000000000    9.0340278699999992
Ce Ge Ru
8 24 8
direct
   0.5000000000000000    0.0000000000000000    0.7500000000000000 Ce
   0.0000000000000000    0.2500000000000000    0.5000000000000000 Ce
   0.7500000000000000    0.5000000000000000   -0.0000000000000000 Ce
   0.5000000000000000    0.0000000000000000    0.2500000000000000 Ce
   0.0000000000000000    0.7500000000000000    0.5000000000000000 Ce
   0.2500000000000000    0.5000000000000000   -0.0000000000000000 Ce
   0.5000000000000000    0.5000000000000000    0.5000000000000000 Ce
   0.0000000000000000    0.0000000000000000   -0.0000000000000000 Ce
   0.5000000000000000    0.3451595400000000    0.8269429500000001 Ge
   0.6548404600000001    0.1730570500000000    0.5000000000000000 Ge
   0.8269429500000001    0.5000000000000000    0.6548404600000001 Ge
   0.5000000000000000    0.6548404600000001    0.1730570500000000 Ge
   0.3451595400000000    0.8269429500000001    0.5000000000000000 Ge
   0.1730570500000000    0.5000000000000000    0.3451595400000000 Ge
   0.6548404600000001    0.8269429500000001    0.5000000000000000 Ge
   0.8269429500000001    0.5000000000000000    0.3451595400000000 Ge
   0.3451595400000000    0.1730570500000000    0.5000000000000000 Ge
   0.1730570500000000    0.5000000000000000    0.6548404600000001 Ge
   0.5000000000000000    0.6548404600000001    0.8269429500000001 Ge
   0.5000000000000000    0.3451595400000000    0.1730570500000000 Ge
   0.0000000000000000    0.3269429500000000    0.8451595400000000 Ge
   0.1548404600000000    0.0000000000000000    0.6730570500000000 Ge
   0.3269429500000000    0.1548404600000000   -0.0000000000000000 Ge
   0.0000000000000000    0.6730570500000000    0.1548404600000000 Ge
   0.8451595400000000    0.0000000000000000    0.3269429500000000 Ge
   0.6730570500000000    0.8451595400000000   -0.0000000000000000 Ge
   0.1548404600000000    0.0000000000000000    0.3269429500000000 Ge
   0.3269429500000000    0.8451595400000000   -0.0000000000000000 Ge
   0.8451595400000000    0.0000000000000000    0.6730570500000000 Ge
   0.6730570500000000    0.1548404600000000   -0.0000000000000000 Ge
   0.0000000000000000    0.3269429500000000    0.1548404600000000 Ge
   0.0000000000000000    0.6730570500000000    0.8451595400000000 Ge
   0.7500000000000000    0.2500000000000000    0.7500000000000000 Ru
   0.2500000000000000    0.7500000000000000    0.2500000000000000 Ru
   0.7500000000000000    0.7500000000000000    0.2500000000000000 Ru
   0.2500000000000000    0.2500000000000000    0.7500000000000000 Ru
   0.2500000000000000    0.7500000000000000    0.7500000000000000 Ru
   0.7500000000000000    0.2500000000000000    0.2500000000000000 Ru
   0.2500000000000000    0.2500000000000000    0.2500000000000000 Ru
   0.7500000000000000    0.7500000000000000    0.7500000000000000 Ru
