Fe1 Bi1 O3
1.0
   4.6921580000000001   -0.3783760000000000    2.0558700000000001
   1.1955849999999999    4.5530309999999998    2.0558689999999999
  -0.5336430000000000   -0.3783749999999990    5.0949159999999996
Fe Bi O
1 1 3
direct
   0.2691870000000000    0.2691870000000000    0.2691870000000000 Fe
   0.0122560000000000    0.0122560000000000    0.0122560000000000 Bi
   0.0065509999999990    0.2471660000000000    0.5788400000000000 O
   0.5788400000000000    0.0065509999999990    0.2471660000000000 O
   0.2471660000000000    0.5788400000000000    0.0065509999999990 O
