Lu3 Ga1 C1
1.0
   4.6857453900000001   -0.0000000000000000    0.0000000000000000
  -0.0000000000000000    4.6857453900000001    0.0000000000000000
  -0.0000000000000000   -0.0000000000000000    4.6857453900000001
Lu Ga C
3 1 1
direct
   0.5000000000000000   -0.0000000000000000   -0.0000000000000000 Lu
  -0.0000000000000000    0.5000000000000000   -0.0000000000000000 Lu
  -0.0000000000000000   -0.0000000000000000    0.5000000000000000 Lu
   0.5000000000000000    0.5000000000000000    0.5000000000000000 Ga
  -0.0000000000000000   -0.0000000000000000   -0.0000000000000000 C
