Ba2 Nd2 O6
1.0
   5.4903829999999996   -3.2368450000000002    0.0000000000000000
   5.4903829999999996    3.2368450000000002    0.0000000000000000
   3.5821060000000000    0.0000000000000000    5.2716209999999997
Ba Nd O
2 2 6
direct
   0.7500000000000000    0.7500000000000000    0.7500000000000000 Ba
   0.2500000000000000    0.2500000000000000    0.2500000000000000 Ba
   0.0000000000000000    0.0000000000000000    0.0000000000000000 Nd
   0.5000000000000000    0.5000000000000000    0.5000000000000000 Nd
   0.8342980000000000    0.2500000000000000    0.6657020000000000 O
   0.6657020000000000    0.8342980000000000    0.2500000000000000 O
   0.7500000000000000    0.3342980000000000    0.1657020000000000 O
   0.2500000000000000    0.6657020000000000    0.8342980000000000 O
   0.3342980000000000    0.1657020000000000    0.7500000000000000 O
   0.1657020000000000    0.7500000000000000    0.3342980000000000 O
