Mg8 B8 H8 O24
1.0
  10.4928369999999997    0.0000000000000000    0.0000000000000000
   0.0000000000000000    3.1756609999999998    0.0000000000000000
   0.0000000000000000    1.2860499999999999   12.6229569999999995
Mg B H O
8 8 8 24
direct
   0.0793020000000000    0.7069820000000000    0.0881619999999990 Mg
   0.5793020000000000    0.2930180000000000    0.4118380000000000 Mg
   0.9206979999999990    0.2930180000000000    0.9118379999999990 Mg
   0.4206979999999990    0.7069820000000000    0.5881620000000000 Mg
   0.3624290000000000    0.2327219999999990    0.9951019999999990 Mg
   0.8624290000000000    0.7672780000000000    0.5048980000000000 Mg
   0.6375710000000000    0.7672780000000000    0.0048980000000000 Mg
   0.1375710000000000    0.2327219999999990    0.4951020000000000 Mg
   0.1679900000000000    0.7594830000000000    0.8617119999999990 B
   0.6679900000000001    0.2405169999999990    0.6382880000000000 B
   0.8320100000000000    0.2405169999999990    0.1382880000000000 B
   0.3320100000000000    0.7594830000000000    0.3617120000000000 B
   0.0480860000000000    0.6273940000000000    0.6929689999999999 B
   0.5480860000000000    0.3726060000000000    0.8070309999999991 B
   0.9519139999999990    0.3726060000000000    0.3070310000000000 B
   0.4519140000000000    0.6273940000000000    0.1929690000000000 B
   0.2435000000000000    0.1377890000000000    0.1618340000000000 H
   0.7435000000000000    0.8622109999999999    0.3381659999999990 H
   0.7565000000000001    0.8622109999999999    0.8381660000000000 H
   0.2565000000000000    0.1377890000000000    0.6618339999999990 H
   0.1182090000000000    0.6832690000000000    0.3067149999999990 H
   0.6182090000000000    0.3167310000000000    0.1932849999999990 H
   0.8817910000000000    0.3167310000000000    0.6932849999999990 H
   0.3817910000000000    0.6832690000000000    0.8067150000000000 H
   0.0625080000000000    0.7775259999999991    0.9239430000000000 O
   0.5625080000000000    0.2224739999999990    0.5760569999999990 O
   0.9374920000000000    0.2224739999999990    0.0760570000000000 O
   0.4374920000000000    0.7775259999999991    0.4239429999999990 O
   0.2915419999999990    0.7690270000000000    0.8983749999999990 O
   0.7915420000000000    0.2309729999999990    0.6016250000000000 O
   0.7084579999999990    0.2309729999999990    0.1016250000000000 O
   0.2084580000000000    0.7690270000000000    0.3983750000000000 O
   0.1539890000000000    0.7314689999999990    0.7514649999999991 O
   0.6539889999999990    0.2685309999999990    0.7485350000000000 O
   0.8460110000000000    0.2685309999999990    0.2485349999999990 O
   0.3460109999999990    0.7314689999999990    0.2514650000000000 O
   0.4501369999999990    0.6015330000000000    0.7536710000000000 O
   0.9501370000000000    0.3984669999999990    0.7463290000000000 O
   0.5498630000000000    0.3984669999999990    0.2463290000000000 O
   0.0498630000000000    0.6015330000000000    0.2536710000000000 O
   0.0437590000000000    0.7201550000000000    0.5854070000000000 O
   0.5437590000000000    0.2798450000000000    0.9145930000000000 O
   0.9562410000000000    0.2798450000000000    0.4145930000000000 O
   0.4562409999999990    0.7201550000000000    0.0854070000000000 O
   0.2947269999999990    0.2039590000000000    0.5917240000000000 O
   0.7947270000000000    0.7960410000000000    0.9082760000000000 O
   0.7052729999999990    0.7960410000000000    0.4082760000000000 O
   0.2052729999999990    0.2039590000000000    0.0917240000000000 O
