Ba1 Li1 Zr1 O3
1.0
   4.4405919999999997   -0.2907690000000000   -0.2907690000000000
  -0.2907690000000000    4.4405919999999997    0.2907690000000000
  -0.2907690000000000    0.2907690000000000    4.4405919999999997
Ba Li Zr O
1 1 1 3
direct
   0.0801019999999990    0.9198980000000000    0.9198980000000000 Ba
   0.7545080000000000    0.2454920000000000    0.2454920000000000 Li
   0.4715160000000000    0.5284840000000000    0.5284840000000000 Zr
   0.4844880000000000    0.0251000000000000    0.5155120000000000 O
   0.4844880000000000    0.5155120000000000    0.0251000000000000 O
   0.9749000000000001    0.5155120000000000    0.5155120000000000 O
