Hg2 I6 N2 O2
1.0
   5.8776209999999995    4.8268380000000004    0.0211700000000000
  -5.8776209999999995    4.8268380000000004   -0.0211700000000000
   0.0568770000000000    0.0000000000000000    8.4102440000000005
Hg I N O
2 6 2 2
direct
   0.3467349999999990    0.5178070000000000    0.6243500000000001 Hg
   0.4821930000000000    0.6532650000000000    0.1243500000000000 Hg
   0.5714880000000000    0.4248719999999990    0.8762350000000000 I
   0.5751280000000000    0.4285120000000000    0.3762350000000000 I
   0.0225740000000000    0.2647210000000000    0.6280650000000000 I
   0.7352790000000000    0.9774259999999991    0.1280649999999990 I
   0.3543659999999990    0.8925419999999999    0.6440230000000000 I
   0.1074580000000000    0.6456339999999990    0.1440229999999990 I
   0.0054000000000000    0.8980700000000000    0.6574439999999990 N
   0.1019300000000000    0.9946000000000000    0.1574440000000000 N
   0.1842089999999990    0.0792980000000000    0.0594639999999990 O
   0.9207019999999990    0.8157909999999990    0.5594640000000000 O
