Sb2 Pb6 N2
1.0
  -3.7797140000000002   -3.6454399999999998   -4.9597109999999986
   3.7797140000000002   -3.6454399999999998    4.9597109999999986
  -3.7797140000000002    3.6454399999999998    4.9597109999999986
Sb Pb N
2 6 2
direct
   0.0028439999999990    0.7500000000000000    0.7528440000000000 Sb
   0.9971559999999990    0.2500000000000000    0.2471560000000000 Sb
   0.5000000000000000    0.2893890000000000    0.2893890000000000 Pb
   0.0000000000000000    0.2106110000000000    0.7106110000000000 Pb
   0.5000000000000000    0.7106110000000000    0.7106110000000000 Pb
   0.0000000000000000    0.7893890000000000    0.2893890000000000 Pb
   0.5677260000000000    0.2500000000000000    0.8177260000000000 Pb
   0.4322740000000000    0.7500000000000000    0.1822740000000000 Pb
   0.5000000000000000    0.5000000000000000    0.0000000000000000 N
   0.5000000000000000    0.0000000000000000    0.5000000000000000 N
