Pr2 Ti2 O6
1.0
   4.7543720000000000   -2.8379689999999993    0.0000000000000000
   4.7543720000000000    2.8379689999999993    0.0000000000000000
   3.0603370000000001    0.0000000000000000    4.6143749999999999
Pr Ti O
2 2 6
direct
   0.2500000000000000    0.2500000000000000    0.2500000000000000 Pr
   0.7500000000000000    0.7500000000000000    0.7500000000000000 Pr
   0.0000000000000000    0.0000000000000000    0.0000000000000000 Ti
   0.5000000000000000    0.5000000000000000    0.5000000000000000 Ti
   0.7500000000000000    0.1707960000000000    0.3292040000000000 O
   0.6707959999999999    0.2500000000000000    0.8292039999999991 O
   0.8292039999999991    0.6707959999999999    0.2500000000000000 O
   0.1707960000000000    0.3292040000000000    0.7500000000000000 O
   0.3292040000000000    0.7500000000000000    0.1707960000000000 O
   0.2500000000000000    0.8292039999999991    0.6707959999999999 O
