Dy6 Mn6 O18
1.0
   3.0680444200000001   -5.3139574700000001   -0.0000001400000000
   3.0680444599999999    5.3139574900000000   -0.0000001300000000
   0.0000005000000000    0.0000000100000000   11.4285270299999997
Dy Mn O
6 6 18
direct
   0.0000000500000000    0.0000000200000000    0.2837527200000000 Dy
   0.0000000500000000    0.0000000600000000    0.7837533999999990 Dy
   0.3333333600000000    0.6666667200000000    0.2387930900000000 Dy
   0.6666667300000000    0.3333335200000000    0.7387965800000000 Dy
   0.3333335100000000    0.6666667600000000    0.7387966400000000 Dy
   0.6666666700000000    0.3333333500000000    0.2387931100000000 Dy
   0.3335903900000000    0.0000060600000000    0.0078984900000000 Mn
   0.3335784600000000    0.3335784100000000    0.5078972900000001 Mn
  -0.0000060000000000    0.6664090400000000    0.5078975100000001 Mn
   0.0000060300000000    0.3335902100000000    0.0078984800000000 Mn
   0.6664220500000000    0.6664220300000000    0.0078982900000000 Mn
   0.6664089800000000   -0.0000060700000000    0.5078974900000001 Mn
   0.3063628600000000    0.0000009100000000    0.1712919900000000 O
   0.3063659100000000    0.3063659300000000    0.6712940400000000 O
  -0.0000007000000000    0.6936329200000000    0.6712938600000000 O
   0.0000008800000000    0.3063628400000000    0.1712920000000000 O
   0.6936383900000000    0.6936383800000000    0.1712921700000000 O
   0.6936328800000000   -0.0000006900000000    0.6712938700000000 O
   0.6404317800000000   -0.0000004400000000    0.3447160600000000 O
   0.6404344400000000    0.6404344700000000    0.8447184300000000 O
   0.0000005200000000    0.3595662200000000    0.8447182300000000 O
  -0.0000004200000000    0.6404318100000000    0.3447160500000000 O
   0.3595677300000000    0.3595677400000000    0.3447162900000000 O
   0.3595662200000000    0.0000005200000000    0.8447182400000001 O
   0.0000006500000000    0.0000006900000000    0.4856201300000000 O
  -0.0000006000000000   -0.0000006100000000    0.9856219200000000 O
   0.3333331000000000    0.6666665300000000    0.0266577500000000 O
   0.6666669400000000    0.3333336100000000    0.5266590700000000 O
   0.3333335800000000    0.6666669800000000    0.5266590700000000 O
   0.6666665300000000    0.3333330800000000    0.0266577500000000 O
