Tl1 Pd1 F3
1.0
  -3.4961223200000000   -2.4537816100000001   -0.0184569100000000
  -1.7308011800000001    2.4605496900000001   -3.0323078799999998
   1.7365043899999999   -2.4573076800000000   -3.0328063500000000
Tl Pd F
1 1 3
direct
   0.9990107800000000    0.9980942200000000    0.9933862900000000 Tl
   0.5000879300000000    0.4978106000000000    0.4872369900000000 Pd
   0.0000707500000000    0.4964207300000000    0.4857208200000000 F
   0.5015122000000000    0.4998732999999990    0.9871385500000001 F
   0.4993143500000000    0.9977961600000000    0.4865143400000000 F
