Rb2 Tl2 I6
1.0
   0.0000000000000000    6.2905749999999996    6.2905749999999996
   6.2905749999999996    0.0000000000000000    6.2905749999999996
   6.2905749999999996    6.2905749999999996    0.0000000000000000
Rb Tl I
2 2 6
direct
   0.7500000000000000    0.7500000000000000    0.7500000000000000 Rb
   0.2500000000000000    0.2500000000000000    0.2500000000000000 Rb
   0.5000000000000000    0.5000000000000000    0.5000000000000000 Tl
   0.0000000000000000    0.0000000000000000    0.0000000000000000 Tl
   0.7573300000000001    0.2426700000000000    0.2426700000000000 I
   0.2426700000000000    0.2426700000000000    0.7573300000000001 I
   0.2426700000000000    0.7573300000000001    0.7573300000000001 I
   0.2426700000000000    0.7573300000000001    0.2426700000000000 I
   0.7573300000000001    0.2426700000000000    0.7573300000000001 I
   0.7573300000000001    0.7573300000000001    0.2426700000000000 I
