Cs4 Eu4 Br12
1.0
   8.1682256800000008    0.0000000000000000    0.0000000000000000
   0.0000000000000000    8.3981924100000001    0.0000000000000000
   0.0000000000000000    0.0000000000000000   11.7889163799999999
Cs Eu Br
4 4 12
direct
   0.5115697800000000    0.4469393300000000    0.2500000000000000 Cs
   0.9884302200000000    0.9469393300000000    0.2500000000000000 Cs
   0.0115697800000000    0.0530606700000000    0.7500000000000000 Cs
   0.4884302200000000    0.5530606700000000    0.7500000000000000 Cs
  -0.0000000000000000    0.5000000000000000    0.0000000000000000 Eu
   0.5000000000000000   -0.0000000000000000    0.0000000000000000 Eu
   0.5000000000000000   -0.0000000000000000    0.5000000000000000 Eu
  -0.0000000000000000    0.5000000000000000    0.5000000000000000 Eu
   0.7983833900000000    0.2042986000000000    0.0337831700000000 Br
   0.2016166100000000    0.7957014000000000    0.9662168300000000 Br
   0.2983833900000000    0.2957014000000000    0.5337831700000000 Br
   0.7016166100000000    0.7042986000000000    0.4662168300000000 Br
   0.7016166100000000    0.7042986000000000    0.0337831700000000 Br
   0.9353166800000000    0.4920274700000000    0.7500000000000000 Br
   0.7983833900000000    0.2042986000000000    0.4662168300000000 Br
   0.4353166800000000    0.0079725300000000    0.2500000000000000 Br
   0.2983833900000000    0.2957014000000000    0.9662168300000000 Br
   0.0646833200000000    0.5079725300000000    0.2500000000000000 Br
   0.2016166100000000    0.7957014000000000    0.5337831700000000 Br
   0.5646833200000000    0.9920274700000000    0.7500000000000000 Br
