Rb4 Cu4 Cl12
1.0
   6.2271695500000002    0.0000000000000000    0.0000000000000000
  -0.0000000000000000    7.0464544900000003    0.0000000000000000
   0.0000000000000000    0.0000000000000000   11.8080011799999998
Rb Cu Cl
4 4 12
direct
   0.2500000000000000    0.5000000000000000    0.8383614200000000 Rb
   0.7500000000000000    0.0000000000000000    0.6616385800000000 Rb
   0.7500000000000000    0.5000000000000000    0.1616385800000000 Rb
   0.2500000000000000    0.0000000000000000    0.3383614200000000 Rb
   0.5000000000000000    0.0000000000000000    0.0000000000000000 Cu
   0.0000000000000000    0.5000000000000000    0.5000000000000000 Cu
   0.5000000000000000    0.5000000000000000    0.5000000000000000 Cu
   0.0000000000000000    0.0000000000000000    0.0000000000000000 Cu
   0.7500000000000000    0.5000000000000000    0.6475443300000000 Cl
   0.2500000000000000    0.0000000000000000    0.8524556700000000 Cl
   0.2500000000000000    0.5000000000000000    0.3524556700000000 Cl
   0.7500000000000000    0.0000000000000000    0.1475443300000000 Cl
   0.6827635800000000    0.7577676999999990    0.9141570900000000 Cl
   0.1827635800000000    0.7422323000000000    0.5858429100000000 Cl
   0.3172364200000000    0.2577677000000000    0.5858429100000000 Cl
   0.8172364200000000    0.2422322999999990    0.9141570900000000 Cl
   0.1827635800000000    0.7577676999999990    0.0858429100000000 Cl
   0.6827635800000000    0.7422323000000000    0.4141570900000000 Cl
   0.8172364200000000    0.2577677000000000    0.4141570900000000 Cl
   0.3172364200000000    0.2422322999999990    0.0858429100000000 Cl
