Nb2 I6 O2
1.0
   3.9249040700000002   -0.0022643500000000    0.7122104800000000
   1.8431987800000000    7.5550164999999998    0.9888741600000001
  -0.0540225500000000   -0.0254696300000000   11.3400247099999998
Nb I O
2 6 2
direct
   0.9333193300000000    0.0533675300000000    0.1951007800000000 Nb
   0.1791322200000000    0.9466900300000001    0.8048522900000000 Nb
   0.6784601700000000    0.3670754400000000    0.2872038700000000 I
   0.8962161900000000    0.2427606800000000    0.9558692700000000 I
   0.1080206600000000    0.1757155800000000    0.6106978300000000 I
   0.0952605400000000    0.7576135900000001    0.0443174300000000 I
   0.3258956800000000    0.6327426100000000    0.7130879400000000 I
   0.8992802900000000    0.8239096600000000    0.3892101800000000 I
   0.6292432200000000    0.9490601600000000    0.8134985300000001 O
   0.3943746900000000    0.0510657000000000    0.1861648800000000 O
