Sc2 Bi2 O6
1.0
   5.2952729999999999   -2.8527860000000000    0.0000000000000000
   5.2952729999999999    2.8527860000000000    0.0000000000000000
   3.7583579999999999    0.0000000000000000    4.6960680000000004
Sc Bi O
2 2 6
direct
   0.8513630000000000    0.8513630000000000    0.8513630000000000 Sc
   0.1486370000000000    0.1486370000000000    0.1486370000000000 Sc
   0.6369490000000000    0.6369490000000000    0.6369490000000000 Bi
   0.3630509999999990    0.3630509999999990    0.3630509999999990 Bi
   0.5533770000000000    0.9771069999999999    0.2062550000000000 O
   0.7937449999999990    0.4466230000000000    0.0228930000000000 O
   0.0228930000000000    0.7937449999999990    0.4466230000000000 O
   0.9771069999999999    0.2062550000000000    0.5533770000000000 O
   0.2062550000000000    0.5533770000000000    0.9771069999999999 O
   0.4466230000000000    0.0228930000000000    0.7937449999999990 O
