Ni1 Bi1 O3
1.0
   2.7308819999999998    2.8097490000000001    0.0000000000000000
  -2.7308819999999998    2.8097490000000001    0.0000000000000000
   0.0000000000000000    0.0679780000000000    3.8703210000000001
Ni Bi O
1 1 3
direct
   0.5088079999999990    0.5088079999999990    0.5074510000000000 Ni
   0.9365960000000000    0.9365960000000000    0.9689489999999999 Bi
   0.0178080000000000    0.5510149999999990    0.5217180000000000 O
   0.5510149999999990    0.0178080000000000    0.5217180000000000 O
   0.5391770000000000    0.5391770000000000    0.0099890000000000 O
