N1 Cl1 O3
1.0
   4.0766890000000000    1.8808710000000000    0.0000000000000000
  -4.0766890000000000    1.8808710000000000    0.0000000000000000
   0.0000000000000000    0.3386579999999990    4.7555949999999996
N Cl O
1 1 3
direct
   0.8934090000000000    0.8934090000000000    0.8376629999999990 N
   0.1037530000000000    0.1037530000000000    0.3878930000000000 Cl
   0.5908329999999991    0.5908329999999991    0.8591489999999991 O
   0.8723280000000000    0.3296770000000000    0.4051470000000000 O
   0.3296770000000000    0.8723280000000000    0.4051470000000000 O
