Y1 Rh3 C1
1.0
   4.1542378299999996    0.0000000000000000   -0.0000000000000000
  -0.0000000000000000    4.1542378299999996   -0.0000000000000000
  -0.0000000000000000    0.0000000000000000    4.1542378299999996
Y Rh C
1 3 1
direct
   0.0000000000000000    0.0000000000000000    0.0000000000000000 Y
   0.0000000000000000    0.5000000000000000    0.5000000000000000 Rh
   0.5000000000000000    0.0000000000000000    0.5000000000000000 Rh
   0.5000000000000000    0.5000000000000000    0.0000000000000000 Rh
   0.5000000000000000    0.5000000000000000    0.5000000000000000 C
