K4 Be4 H12
1.0
   5.4974379999999998    0.0000000000000000    0.0000000000000000
   0.0000000000000000    6.8612580000000003    0.0000000000000000
   0.0000000000000000    2.4764520000000001    8.6985689999999991
K Be H
4 4 12
direct
   0.2485919999999990    0.7690760000000000    0.6982149999999990 K
   0.7485919999999990    0.2309240000000000    0.8017850000000000 K
   0.2514079999999990    0.7690760000000000    0.1982150000000000 K
   0.7514080000000000    0.2309240000000000    0.3017849999999990 K
   0.2559410000000000    0.2458900000000000    0.5029709999999999 Be
   0.7559410000000000    0.7541100000000001    0.9970289999999991 Be
   0.2440590000000000    0.2458900000000000    0.0029709999999990 Be
   0.7440589999999990    0.7541100000000001    0.4970290000000000 Be
   0.0271620000000000    0.1827780000000000    0.5664720000000000 H
   0.4670789999999990    0.1611439999999990    0.5805260000000000 H
   0.7259409999999999    0.6243330000000000    0.6461420000000000 H
   0.2259410000000000    0.3756670000000000    0.8538580000000000 H
   0.9670789999999990    0.8388559999999990    0.9194740000000000 H
   0.5271620000000000    0.8172220000000000    0.9335279999999990 H
   0.4728380000000000    0.1827780000000000    0.0664720000000000 H
   0.0329210000000000    0.1611439999999990    0.0805260000000000 H
   0.7740589999999991    0.6243330000000000    0.1461420000000000 H
   0.2740590000000000    0.3756670000000000    0.3538580000000000 H
   0.5329210000000000    0.8388559999999990    0.4194739999999990 H
   0.9728380000000000    0.8172220000000000    0.4335279999999990 H
