Tl2 Ag2 Cl6
1.0
   6.2407370000000002   -3.6409279999999988    0.0000000000000000
   6.2407370000000002    3.6409279999999988    0.0000000000000000
   4.1165719999999997    0.0000000000000000    5.9377599999999999
Tl Ag Cl
2 2 6
direct
   0.2668860000000000    0.2668860000000000    0.2668860000000000 Tl
   0.7668860000000000    0.7668860000000000    0.7668860000000000 Tl
   0.0037259999999990    0.0037259999999990    0.0037259999999990 Ag
   0.5037260000000000    0.5037260000000000    0.5037260000000000 Ag
   0.7972239999999990    0.2508420000000000    0.7098209999999990 Cl
   0.7098209999999990    0.7972239999999990    0.2508420000000000 Cl
   0.2508420000000000    0.7098209999999990    0.7972239999999990 Cl
   0.2972240000000000    0.2098209999999990    0.7508420000000000 Cl
   0.2098209999999990    0.7508420000000000    0.2972240000000000 Cl
   0.7508420000000000    0.2972240000000000    0.2098209999999990 Cl
