V2 O2 F6
1.0
   2.9514969999999998    4.8149540000000002    0.0000000000000000
  -2.9514969999999998    4.8149540000000002    0.0000000000000000
   0.0000000000000000    0.1558280000000000    4.9658199999999999
V O F
2 2 6
direct
   0.3311580000000000    0.6688419999999990    0.5000000000000000 V
   0.6368079999999990    0.3631919999999990    0.0000000000000000 V
   0.5061760000000000    0.6741739999999991    0.7932779999999990 O
   0.3258260000000000    0.4938240000000000    0.2067220000000000 O
   0.0188030000000000    0.7390550000000000    0.6329000000000000 F
   0.7193240000000000    0.5100549999999990    0.3100370000000000 F
   0.9677580000000000    0.2773970000000000    0.8971270000000000 F
   0.4899449999999990    0.2806760000000000    0.6899630000000000 F
   0.7226030000000000    0.0322420000000000    0.1028729999999990 F
   0.2609450000000000    0.9811970000000000    0.3671000000000000 F
