Tl4 Co4 O12
1.0
   5.3270759999999999    0.0000000000000000    0.0000000000000000
   0.0816220000000000    5.4093330000000002    0.0000000000000000
   0.0648550000000000    0.0695770000000000    7.9241900000000003
Tl Co O
4 4 12
direct
   0.9817830000000000    0.0464339999999990    0.7475440000000000 Tl
   0.5144449999999990    0.5463129999999990    0.7476610000000000 Tl
   0.4855549999999990    0.4536870000000000    0.2523390000000000 Tl
   0.0182170000000000    0.9535659999999990    0.2524560000000000 Tl
   0.0000000000000000    0.5000000000000000    0.0000000000000000 Co
   0.0000000000000000    0.5000000000000000    0.5000000000000000 Co
   0.5000000000000000    0.0000000000000000    0.0000000000000000 Co
   0.5000000000000000    0.0000000000000000    0.5000000000000000 Co
   0.8934000000000001    0.5418860000000000    0.2437639999999990 O
   0.7947580000000000    0.7940260000000000    0.5590530000000000 O
   0.7937190000000000    0.7950079999999990    0.9427049999999991 O
   0.6959580000000000    0.2865890000000000    0.9417650000000000 O
   0.7034410000000000    0.2928370000000000    0.5602619999999990 O
   0.6072870000000000    0.0410870000000000    0.2532050000000000 O
   0.3927130000000000    0.9589129999999991    0.7467950000000000 O
   0.2965589999999990    0.7071630000000000    0.4397379999999990 O
   0.3040420000000000    0.7134110000000000    0.0582349999999990 O
   0.2062810000000000    0.2049919999999990    0.0572950000000000 O
   0.2052419999999990    0.2059740000000000    0.4409470000000000 O
   0.1066000000000000    0.4581139999999990    0.7562360000000000 O
