Cd2 Sn2 O6
1.0
   2.3781180000000002    0.0276569999999990    6.2684410000000002
  -5.2016060000000000    4.9233000000000002    4.5575120000000000
  -2.6007800000000003   -1.9709539999999990   -0.8225800000000001
Cd Sn O
2 2 6
direct
   0.2944980000000000    0.6635570000000000    0.0476300000000000 Cd
   0.7055020000000000    0.3364430000000000    0.9523700000000000 Cd
   0.6690680000000000    0.8309780000000000    0.9222420000000000 Sn
   0.3309320000000000    0.1690220000000000    0.0777580000000000 Sn
   0.8982629999999990    0.7816120000000000    0.6531580000000000 O
   0.5978519999999991    0.0885300000000000    0.8483250000000000 O
   0.4242430000000000    0.3807450000000000    0.1700500000000000 O
   0.1017370000000000    0.2183880000000000    0.3468420000000000 O
   0.4021480000000000    0.9114700000000001    0.1516750000000000 O
   0.5757570000000000    0.6192550000000000    0.8299500000000001 O
