Dy2 Cu2 Pb2 S6
1.0
   1.9647359999999989   -6.5448149999999998    0.0000000000000000
   1.9647359999999989    6.5448149999999998    0.0000000000000000
   0.0000000000000000    0.0000000000000000   10.2174659999999999
Dy Cu Pb S
2 2 2 6
direct
   0.9965740000000000    0.0034260000000000    0.4979190000000000 Dy
   0.0034260000000000    0.9965740000000000    0.9979190000000000 Dy
   0.4676369999999990    0.5323630000000000    0.2490959999999990 Cu
   0.5323630000000000    0.4676369999999990    0.7490960000000000 Cu
   0.7478520000000000    0.2521480000000000    0.2223429999999990 Pb
   0.2521480000000000    0.7478520000000000    0.7223430000000000 Pb
   0.3617760000000000    0.6382240000000000    0.4330400000000000 S
   0.6359830000000000    0.3640170000000000    0.5655890000000000 S
   0.3640170000000000    0.6359830000000000    0.0655890000000000 S
   0.6382240000000000    0.3617760000000000    0.9330400000000001 S
   0.0736550000000000    0.9263450000000000    0.2499130000000000 S
   0.9263450000000000    0.0736550000000000    0.7499129999999991 S
