Ho4 Co4 O12
1.0
   0.0000000000000000    0.0000000000000000    3.8517419999999989
   5.6856679999999997    0.0000000000000000    0.0000000000000000
   0.0000000000000000   12.2511519999999994    0.0000000000000000
Ho Co O
4 4 12
direct
   0.5845750000000000    0.6642070000000000    0.2500000000000000 Ho
   0.9154249999999990    0.1642070000000000    0.2500000000000000 Ho
   0.4154250000000000    0.3357930000000000    0.7500000000000000 Ho
   0.0845750000000000    0.8357930000000000    0.7500000000000000 Ho
   0.5000000000000000    0.5000000000000000    0.0000000000000000 Co
   0.0000000000000000    0.0000000000000000    0.5000000000000000 Co
   0.5000000000000000    0.5000000000000000    0.5000000000000000 Co
   0.0000000000000000    0.0000000000000000    0.0000000000000000 Co
   0.3916980000000000    0.0026230000000000    0.2500000000000000 O
   0.1083020000000000    0.5026229999999990    0.2500000000000000 O
   0.6083020000000000    0.9973770000000000    0.7500000000000000 O
   0.8916980000000000    0.4973769999999990    0.7500000000000000 O
   0.7452130000000000    0.7481709999999990    0.0728680000000000 O
   0.7547870000000000    0.2481709999999990    0.4271319999999990 O
   0.2547870000000000    0.2518289999999990    0.5728679999999990 O
   0.2452130000000000    0.7518290000000000    0.9271320000000000 O
   0.2547870000000000    0.2518289999999990    0.9271320000000000 O
   0.2452130000000000    0.7518290000000000    0.5728679999999990 O
   0.7452130000000000    0.7481709999999990    0.4271319999999990 O
   0.7547870000000000    0.2481709999999990    0.0728680000000000 O
