Sc3 Sn1 B1
1.0
   4.6539680800000003   -0.0000000000000000    0.0000000000000000
  -0.0000000000000000    4.6539680800000003   -0.0000000000000000
   0.0000000000000000   -0.0000000000000000    4.6539680800000003
Sc Sn B
3 1 1
direct
   0.5000000000000000    0.0000000000000000    0.5000000000000000 Sc
   0.0000000000000000    0.5000000000000000    0.5000000000000000 Sc
   0.5000000000000000    0.5000000000000000    0.0000000000000000 Sc
   0.0000000000000000    0.0000000000000000    0.0000000000000000 Sn
   0.5000000000000000    0.5000000000000000    0.5000000000000000 B
