Sm1 Mg1 Ti1 O3
1.0
   4.3485934700000000    0.3497933800000000    0.3497933800000000
   0.3497933800000000    4.3485934700000000    0.3497933800000000
   0.3497933800000000    0.3497933800000000    4.3485934700000000
Sm Mg Ti O
1 1 1 3
direct
   0.6172035200000000    0.6172035200000000    0.6172035200000000 Sm
   0.2658286800000000    0.2658286800000000    0.2658286800000000 Mg
   0.9594911300000000    0.9594911300000000    0.9594911300000000 Ti
   0.4686311400000000    0.9694227700000000    0.9694227700000000 O
   0.9694227700000000    0.4686311400000000    0.9694227700000000 O
   0.9694227700000000    0.9694227700000000    0.4686311400000000 O
