Mg1 V1 Cu1 O3
1.0
   5.0371205600000000    0.9712813300000001    1.9078919100000000
   4.0510514600000000    3.6634309200000001    3.1669840699999998
   1.8676062099999999   -0.5219298300000000    6.5733527699999996
Mg V Cu O
1 1 1 3
direct
   0.1410406700000000    0.2015293000000000    0.9511889600000000 Mg
   0.0637087200000000    0.6307031900000000    0.0872192100000000 V
   0.1363048500000000    0.9061698100000000    0.5368242200000000 Cu
   0.4019006500000000    0.6595824800000000    0.0356727100000000 O
   0.8828405600000000    0.7708809500000000    0.8128913500000000 O
   0.3667025500000000    0.0535012700000000    0.2398175500000000 O
