Ta4 Tl4 O12
1.0
   0.0000000000000000    5.3353620399999997    5.3353620399999997
   5.3353620399999997    0.0000000000000000    5.3353620399999997
   5.3353620399999997    5.3353620399999997   -0.0000000000000000
Ta Tl O
4 4 12
direct
   0.1250000000000000    0.1250000000000000    0.1250000000000000 Ta
   0.6250000000000000    0.1250000000000000    0.1250000000000000 Ta
   0.1250000000000000    0.6250000000000000    0.1250000000000000 Ta
   0.1250000000000000    0.1250000000000000    0.6250000000000000 Ta
   0.6250000000000000    0.6250000000000000    0.1250000000000000 Tl
   0.6250000000000000    0.6250000000000000    0.6250000000000000 Tl
   0.6250000000000000    0.1250000000000000    0.6250000000000000 Tl
   0.1250000000000000    0.6250000000000000    0.6250000000000000 Tl
   0.0644970300000000    0.4355029700000000    0.4355029700000000 O
   0.8144970300000001    0.8144970300000001    0.1855029700000000 O
   0.8144970300000001    0.1855029700000000    0.1855029700000000 O
   0.4355029700000000    0.0644970300000000    0.4355029700000000 O
   0.0644970300000000    0.4355029700000000    0.0644970300000000 O
   0.0644970300000000    0.0644970300000000    0.4355029700000000 O
   0.1855029700000000    0.1855029700000000    0.8144970300000001 O
   0.1855029700000000    0.8144970300000001    0.1855029700000000 O
   0.8144970300000001    0.1855029700000000    0.8144970300000001 O
   0.4355029700000000    0.0644970300000000    0.0644970300000000 O
   0.4355029700000000    0.4355029700000000    0.0644970300000000 O
   0.1855029700000000    0.8144970300000001    0.8144970300000001 O
