Nd2 V2 Ge6
1.0
   6.2183106200000005   -0.0000010100000000   -0.0000000000000000
  -3.1091553100000002    5.3853729100000001    0.0000000000000000
   0.0000000000000000    0.0000000000000000    5.6204208500000004
Nd V Ge
2 2 6
direct
   0.6666233200000000    0.3332466400000000    0.2500000000000000 Nd
   0.3333766800000000    0.6667533600000000    0.7500000000000000 Nd
  -0.0000000000000000    0.0000000000000000   -0.0000000000000000 V
  -0.0000000000000000    0.0000000000000000    0.5000000000000000 V
   0.1952877100000000    0.3905764200000000    0.2500000000000000 Ge
   0.1952522300000000    0.8046643400000000    0.2500000000000000 Ge
   0.6094131100000000    0.8046643400000000    0.2500000000000000 Ge
   0.3905878900000000    0.1953356600000000    0.7500000000000000 Ge
   0.8047477700000000    0.1953356600000000    0.7500000000000000 Ge
   0.8047122900000000    0.6094235800000000    0.7500000000000000 Ge
