In5 Ga5 S15
1.0
   6.7563789999999999    0.0000000000000000    0.0000000000000000
   3.3775219999999999    5.8527089999999999    0.0000000000000000
   1.2698330000000000    1.9540160000000000   15.4063429999999997
In Ga S
5 5 15
direct
   0.6664100000000001    0.6556600000000000    0.0062790000000000 In
   0.3414780000000000    0.3296940000000000    0.0089010000000000 In
   0.9884090000000000    0.0088849999999990    0.0070200000000000 In
   0.0023140000000000    0.4166350000000000    0.7493160000000000 In
   0.6653220000000000    0.0823660000000000    0.7492690000000000 In
   0.3285450000000000    0.9253900000000000    0.2544000000000000 Ga
   0.0074189999999990    0.5698500000000001    0.2540520000000000 Ga
   0.0016650000000000    0.8489610000000000    0.4468820000000000 Ga
   0.6671889999999990    0.5188020000000000    0.4468320000000000 Ga
   0.3307060000000000    0.7503520000000000    0.7589420000000000 Ga
   0.9818990000000000    0.5214930000000000    0.4882390000000000 S
   0.6882570000000000    0.1708400000000000    0.4867590000000000 S
   0.3332940000000000    0.8203400000000001    0.4857849999999990 S
   0.9957959999999991    0.6395470000000000    0.0909270000000000 S
   0.6632930000000000    0.3054170000000000    0.0916930000000000 S
   0.3304240000000000    0.9668110000000000    0.0911719999999990 S
   0.6417849999999991    0.4624180000000000    0.6926970000000000 S
   0.3341520000000000    0.0783190000000000    0.6884159999999990 S
   0.0273000000000000    0.7706550000000000    0.6898200000000001 S
   0.0104570000000000    0.3617380000000000    0.9105620000000000 S
   0.6665949999999990    0.0227479999999990    0.9106449999999990 S
   0.3269820000000000    0.7036430000000000    0.9070440000000000 S
   0.6638069999999990    0.5795680000000000    0.2855209999999990 S
   0.3320329999999990    0.2386920000000000    0.2810000000000000 S
   0.0046370000000000    0.8950440000000000    0.2857270000000000 S
