Tm6 Mn6 O18
1.0
   3.0266041399999999   -5.2422186200000001    0.0000000500000000
   3.0266041399999999    5.2422186200000001   -0.0000003900000000
   0.0000003700000000    0.0000005400000000   11.3509063900000005
Tm Mn O
6 6 18
direct
   0.6666663500000000    0.3333330600000000    0.7278186500000000 Tm
   0.0000001500000000    0.0000001600000000    0.7729127500000000 Tm
   0.3333335200000000    0.6666669000000000    0.2278069100000000 Tm
   0.6666668500000000    0.3333337200000000    0.2278068600000000 Tm
  -0.0000000900000000   -0.0000001300000000    0.2729129000000000 Tm
   0.3333330800000000    0.6666662999999990    0.7278187100000000 Tm
   0.6665023999999991    0.6665024200000000    0.9972502600000001 Mn
  -0.0000035000000000    0.3334904999999990    0.9972501900000000 Mn
   0.0000034600000000    0.6665056600000000    0.4972476600000000 Mn
   0.3334907200000000   -0.0000034800000000    0.9972502000000000 Mn
   0.6665055000000000    0.0000033900000000    0.4972476100000000 Mn
   0.3335014100000000    0.3335013900000000    0.4972476999999990 Mn
   0.6666662300000000    0.3333326700000000    0.5178879200000001 O
   0.6391784600000000    0.6391784200000000    0.8327392900000000 O
   0.3608209700000000   -0.0000001900000000    0.8327393400000001 O
   0.6945373200000000    0.0000001300000000    0.6620120500000000 O
  -0.0000003100000000    0.3608206700000000    0.8327393400000001 O
   0.3333325200000000    0.6666661200000000    0.5178878500000000 O
  -0.0000001800000000    0.3054586200000000    0.1620119400000000 O
   0.3608128700000000    0.3608128600000000    0.3327366500000000 O
   0.0000002400000000    0.6391877300000001    0.3327368000000000 O
   0.3054632100000000    0.3054631600000000    0.6620120500000000 O
   0.6945406500000000    0.6945407500000000    0.1620119000000000 O
   0.0000001300000000    0.0000000600000000    0.9726934400000000 O
   0.3054586800000000   -0.0000001800000000    0.1620119500000000 O
   0.3333335000000000    0.6666670800000000    0.0178829700000000 O
   0.0000001900000000    0.6945372800000000    0.6620119800000001 O
   0.6391877100000000    0.0000003700000000    0.3327367000000000 O
  -0.0000002000000000   -0.0000001900000000    0.4726913700000000 O
   0.6666671600000000    0.3333337500000000    0.0178830500000000 O
