La4 Ni4 O12
1.0
   3.8673419999999998   -0.0001989999999990    3.8656489999999999
  -3.8643169999999998    3.8557889999999988    3.8624179999999999
  -3.8639380000000001   -3.8554269999999988    3.8624470000000000
La Ni O
4 4 12
direct
   0.5001340000000000    0.7467389999999990    0.2530870000000000 La
   0.9998429999999990    0.0003439999999990    0.5002820000000000 La
   0.5000740000000000    0.2531450000000000    0.7465900000000001 La
   0.9998469999999990    0.5003080000000000    0.0001480000000000 La
   0.9999880000000000    0.5001860000000000    0.5000610000000000 Ni
   0.4999139999999990    0.7506609999999990    0.7506210000000000 Ni
   0.9999790000000000    0.9998650000000000    0.0000190000000000 Ni
   0.5002050000000000    0.2494819999999990    0.2493400000000000 Ni
   0.2578200000000000    0.3711359999999990    0.3715100000000000 O
   0.7419880000000000    0.6284390000000000    0.6288579999999990 O
   0.2546430000000000    0.8741220000000000    0.8738779999999990 O
   0.7454310000000000    0.1260570000000000    0.1257960000000000 O
   0.9998520000000000    0.7588700000000000    0.2403800000000000 O
   0.5000860000000000    0.9999169999999999    0.5000370000000000 O
   0.9999800000000001    0.2404200000000000    0.7589100000000001 O
   0.4999550000000000    0.5004520000000000    0.0004210000000000 O
   0.2560370000000000    0.6295490000000000    0.6298480000000000 O
   0.7470279999999990    0.8733259999999990    0.8730789999999991 O
   0.2529349999999990    0.1267750000000000    0.1266219999999990 O
   0.7442610000000000    0.3702070000000000    0.3705130000000000 O
