V4 Cr4 O12
1.0
   2.5247826700000000    4.7843364499999996    0.0013685800000000
  -2.5247826700000000    4.7843364499999996    0.0013685800000000
  -0.0000000000000000    2.6293113400000001    8.2357930199999991
V Cr O
4 4 12
direct
   0.7793226300000000    0.0259870700000000    0.7023355100000001 V
   0.9740129300000000    0.2206773700000000    0.2976644900000000 V
   0.0170484500000000    0.2821038999999990    0.9544905800000000 V
   0.7178960999999990    0.9829515500000000    0.0455094200000000 V
   0.2695384100000000    0.5246127100000000    0.2009193000000000 Cr
   0.4753872900000000    0.7304615900000000    0.7990807000000000 Cr
   0.5261829800000000    0.7722972300000001    0.4495094800000000 Cr
   0.2277027700000000    0.4738170200000000    0.5504905200000000 Cr
   0.5266501900000000    0.4720805800000000    0.3475994200000000 O
   0.0322072400000000    0.9729552300000001    0.8468320300000001 O
   0.5615097900000000    0.4384902100000000    0.0000000000000000 O
   0.9281955200000001    0.5701429400000000    0.7506263600000000 O
   0.4767020400000000    0.0254610400000000    0.5965805600000000 O
   0.9730781200000000    0.5307454400000000    0.0965697100000000 O
   0.0270447700000000    0.9677927600000000    0.1531679700000000 O
   0.5279194200000000    0.4733498100000000    0.6524005800000000 O
   0.0766567600000000    0.9233432400000000    0.5000000000000000 O
   0.4298570600000000    0.0718044800000000    0.2493736400000000 O
   0.9745389600000001    0.5232979600000001    0.4034194400000000 O
   0.4692545600000000    0.0269218800000000    0.9034302900000000 O
