Rb1 Ag1 F3
1.0
   3.0751868299999998    3.0797643099999998    0.0001428600000000
   3.0752767300000001    3.0798747000000000    4.3385007599999996
   3.0748135799999998   -3.0795927900000000   -4.3383727099999998
Rb Ag F
1 1 3
direct
   0.4969282100000000    0.5015332000000000    0.0015341999999990 Rb
   0.9988100600000001    0.5005991400000001    0.5005955200000000 Ag
   0.4986773100000000    0.0005767500000000    0.0005788999999990 F
   0.4986543500000000    0.5007656500000001    0.5007667300000000 F
   0.4999280800000000    0.0000292600000000    0.5000276500000000 F
