Ag2 Hg2 As2 S6
1.0
   5.6757399700000004    3.3488123600000002    0.0272083800000000
  -5.6757399700000004    3.3488123600000002    0.0272083800000000
   0.0000000000000000    3.1284125199999999    7.2009755599999998
Ag Hg As S
2 2 2 6
direct
   0.0224329200000000    0.9779710500000001    0.2521492900000000 Ag
   0.9779710500000001    0.0224329200000000    0.7521492900000000 Ag
   0.7102175200000000    0.3433472600000000    0.2158807500000000 Hg
   0.3433472600000000    0.7102175200000000    0.7158807500000001 Hg
   0.3810870400000000    0.6721931500000000    0.2059842600000000 As
   0.6721931500000000    0.3810870400000000    0.7059842600000000 As
   0.7705173800000000    0.0168771400000000    0.0608767500000000 S
   0.0168771400000000    0.7705173800000000    0.5608767500000000 S
   0.7527701700000000    0.1840927600000000    0.5174590700000000 S
   0.4149097000000000    0.4347839300000000    0.5800498800000000 S
   0.4347839300000000    0.4149097000000000    0.0800498800000000 S
   0.1840927600000000    0.7527701700000000    0.0174590700000000 S
