V4 H4 O12
1.0
   3.6341340000000000    0.0000000000000000    0.0000000000000000
  -1.7454909999999999    5.9238140000000001    0.0000000000000000
  -0.0059190000000000   -0.7817600000000000   12.1158350000000006
V H O
4 4 12
direct
   0.9215270000000000    0.8490660000000000    0.8632360000000000 V
   0.0787259999999990    0.1510500000000000    0.1365130000000000 V
   0.2191020000000000    0.4320259999999990    0.8633780000000000 V
   0.7813780000000000    0.5675049999999990    0.1365920000000000 V
   0.5923200000000001    0.3829559999999990    0.5019310000000000 H
   0.8878290000000000    0.2442089999999990    0.4886870000000000 H
   0.1089789999999990    0.7067470000000000    0.4847809999999990 H
   0.4470369999999990    0.9157139999999990    0.5071260000000000 H
   0.3858860000000000    0.7754190000000000    0.8934369999999990 O
   0.6142470000000000    0.2242769999999990    0.1062559999999990 O
   0.0741270000000000    0.1467340000000000    0.9127080000000000 O
   0.9262340000000000    0.8533950000000000    0.0878950000000000 O
   0.7559650000000000    0.5084810000000000    0.8999429999999990 O
   0.2445139999999990    0.4915049999999990    0.0997720000000000 O
   0.9221539999999990    0.8507929999999990    0.7315349999999990 O
   0.0787500000000000    0.1516480000000000    0.2684560000000000 O
   0.2010269999999990    0.3950680000000000    0.7316770000000000 O
   0.7997219999999990    0.6022290000000000    0.2682950000000000 O
   0.6149260000000000    0.2297560000000000    0.4923659999999990 O
   0.3828800000000001    0.7500669999999990    0.5006610000000000 O
