Yb3 In1 C1
1.0
   4.7818434477842775   -0.0000000000000000    0.0000000000000000
  -0.0000000000000000    4.7818434477842775   -0.0000000000000000
  -0.0000000000000000   -0.0000000000000000    4.7818434477842775
Yb In C
3 1 1
direct
   0.5000000000000000    0.0000000000000000    0.5000000000000000 Yb
   0.5000000000000000    0.5000000000000000    0.0000000000000000 Yb
   0.0000000000000000    0.5000000000000000    0.5000000000000000 Yb
   0.0000000000000000    0.0000000000000000    0.0000000000000000 In
   0.5000000000000000    0.5000000000000000    0.5000000000000000 C
