V4 O4 F12
1.0
   4.9142180000000000    0.0000000000000000    0.0000000000000000
   0.0000000000000000    5.6502239999999997    0.0000000000000000
   0.0000000000000000    0.0000000000000000   10.0716590000000004
V O F
4 4 12
direct
   0.4686829999999990    0.1147519999999990    0.7402120000000000 V
   0.4686829999999990    0.3852480000000000    0.2402119999999990 V
   0.9686830000000000    0.6147520000000000    0.7597880000000000 V
   0.9686830000000000    0.8852479999999990    0.2597879999999990 V
   0.2609039999999990    0.1876900000000000    0.1844210000000000 O
   0.2609039999999990    0.3123100000000000    0.6844209999999999 O
   0.7609039999999990    0.8123100000000001    0.8155789999999991 O
   0.7609039999999990    0.6876900000000000    0.3155790000000000 O
   0.1752449999999990    0.5549580000000000    0.9006020000000000 F
   0.1752449999999990    0.9450419999999990    0.4006019999999990 F
   0.2452639999999990    0.8251750000000000    0.6894310000000000 F
   0.2452639999999990    0.6748250000000000    0.1894310000000000 F
   0.3468660000000000    0.0583039999999990    0.9028330000000000 F
   0.3468660000000000    0.4416960000000000    0.4028330000000000 F
   0.6752450000000000    0.0549580000000000    0.5993980000000000 F
   0.6752450000000000    0.4450420000000000    0.0993980000000000 F
   0.7452639999999990    0.3251750000000000    0.8105690000000000 F
   0.7452639999999990    0.1748249999999990    0.3105690000000000 F
   0.8468660000000000    0.9416960000000000    0.0971669999999990 F
   0.8468660000000000    0.5583040000000000    0.5971670000000000 F
