Sr4 Gd4 Cu4 Se12
1.0
   4.1405219999999998    0.0000000000000000    0.0000000000000000
   0.0000000000000000   10.7798110000000005    0.0000000000000000
   0.0000000000000000    0.0000000000000000   13.6080290000000002
Sr Gd Cu Se
4 4 4 12
direct
   0.2500000000000000    0.2691670000000000    0.9995109999999990 Sr
   0.2500000000000000    0.7691669999999990    0.5004890000000000 Sr
   0.7500000000000000    0.7308330000000000    0.0004890000000000 Sr
   0.7500000000000000    0.2308329999999990    0.4995110000000000 Sr
   0.2500000000000000    0.0125680000000000    0.7560359999999990 Gd
   0.2500000000000000    0.5125680000000000    0.7439640000000000 Gd
   0.7500000000000000    0.9874320000000000    0.2439640000000000 Gd
   0.7500000000000000    0.4874320000000000    0.2560360000000000 Gd
   0.2500000000000000    0.2399720000000000    0.2784020000000000 Cu
   0.2500000000000000    0.7399720000000000    0.2215980000000000 Cu
   0.7500000000000000    0.7600279999999990    0.7215980000000000 Cu
   0.7500000000000000    0.2600280000000000    0.7784019999999990 Cu
   0.2500000000000000    0.2597720000000000    0.6710340000000000 Se
   0.2500000000000000    0.7597720000000000    0.8289660000000000 Se
   0.7500000000000000    0.7402280000000000    0.3289660000000000 Se
   0.7500000000000000    0.2402280000000000    0.1710340000000000 Se
   0.2500000000000000    0.0539520000000000    0.3863479999999990 Se
   0.2500000000000000    0.5539520000000000    0.1136519999999990 Se
   0.7500000000000000    0.9460480000000000    0.6136520000000000 Se
   0.7500000000000000    0.4460480000000000    0.8863479999999990 Se
   0.2500000000000000    0.4163989999999990    0.3939040000000000 Se
   0.2500000000000000    0.9163990000000000    0.1060960000000000 Se
   0.7500000000000000    0.5836009999999990    0.6060960000000000 Se
   0.7500000000000000    0.0836010000000000    0.8939039999999990 Se
