Ti16 Fe16 O48
1.0
   4.6139209999999995    0.0591910000000000    3.1747850000000000
   1.7178069999999992    4.3000270000000000    3.2075760000000000
   0.1070000000000000    0.3302390000000000   44.2098579999999970
Ti Fe O
16 16 48
direct
   0.3656669999999990    0.3677200000000000    0.0415750000000000 Ti
   0.3448630000000000    0.3717800000000001    0.1677370000000000 Ti
   0.1340300000000000    0.1433050000000000    0.2689390000000000 Ti
   0.8505870000000000    0.8683790000000000    0.1061800000000000 Ti
   0.1450440000000000    0.1443819999999990    0.3928859999999990 Ti
   0.8595210000000000    0.8535600000000001    0.2313450000000000 Ti
   0.1430150000000000    0.1434890000000000    0.5186620000000000 Ti
   0.8539279999999990    0.8527110000000000    0.3571060000000000 Ti
   0.1406390000000000    0.1420819999999990    0.6435919999999991 Ti
   0.8555520000000000    0.8559310000000000    0.4817269999999990 Ti
   0.1439409999999990    0.1463110000000000    0.7679750000000000 Ti
   0.8512170000000000    0.8565980000000000    0.6073219999999990 Ti
   0.1535870000000000    0.1404709999999990    0.8925520000000000 Ti
   0.8538350000000000    0.8547270000000000    0.7317580000000000 Ti
   0.8571500000000001    0.8504780000000000    0.8569289999999991 Ti
   0.8397730000000000    0.8818330000000000    0.9803689999999990 Ti
   0.1458020000000000    0.1440620000000000    0.0182450000000000 Fe
   0.1484800000000000    0.1489300000000000    0.1414700000000000 Fe
   0.6497940000000000    0.6470859999999991    0.0801009999999990 Fe
   0.3488710000000000    0.3484370000000000    0.2937180000000000 Fe
   0.6462740000000000    0.6362019999999990    0.2061059999999990 Fe
   0.3521680000000000    0.3554160000000000    0.4195330000000000 Fe
   0.6469469999999991    0.6461660000000000    0.3301550000000000 Fe
   0.3495479999999990    0.3618170000000000    0.5443080000000000 Fe
   0.6466510000000000    0.6411610000000000    0.4559900000000001 Fe
   0.3492360000000000    0.3522860000000000    0.6684080000000000 Fe
   0.6450460000000000    0.6413620000000000    0.5814020000000000 Fe
   0.3473480000000000    0.3628559999999990    0.7941009999999999 Fe
   0.6488109999999990    0.6415830000000000    0.7058460000000000 Fe
   0.3575680000000000    0.3555390000000000    0.9193450000000000 Fe
   0.6485660000000000    0.6395419999999991    0.8307829999999991 Fe
   0.6405170000000000    0.6509530000000000    0.9560569999999990 Fe
   0.0830540000000000    0.7072530000000000    0.0591800000000000 O
   0.4664060000000000    0.0733120000000000    0.0898350000000000 O
   0.7208660000000000    0.4532560000000000    0.0099700000000000 O
   0.2115900000000000    0.5696490000000000    0.1219680000000000 O
   0.5767990000000000    0.9663269999999990    0.0280489999999990 O
   0.0685520000000000    0.7209949999999991    0.1825949999999990 O
   0.9546330000000000    0.2089029999999990    0.0737830000000000 O
   0.4308079999999990    0.0742910000000000    0.2191630000000000 O
   0.7011609999999990    0.4528910000000000    0.1363889999999990 O
   0.2159259999999990    0.5603129999999999    0.2452180000000000 O
   0.5777490000000000    0.9527740000000000    0.1535510000000000 O
   0.0590030000000000    0.7759539999999990    0.3033420000000000 O
   0.9606929999999990    0.2030960000000000    0.1973889999999990 O
   0.4407109999999990    0.0573440000000000    0.3461680000000000 O
   0.7635109999999991    0.4367350000000000    0.2576549999999990 O
   0.2192609999999990    0.5593950000000000    0.3698909999999990 O
   0.5613859999999991    0.9488580000000000    0.2777790000000000 O
   0.0498940000000000    0.7868330000000000    0.4286129999999990 O
   0.9601000000000001    0.2116029999999990    0.3202009999999990 O
   0.4363990000000000    0.0561150000000000    0.4716600000000000 O
   0.7809360000000000    0.4451810000000000    0.3793530000000000 O
   0.2181749999999990    0.5607090000000000    0.4943690000000000 O
   0.5645559999999999    0.9445230000000000    0.4030910000000000 O
   0.0513739999999990    0.7824939999999990    0.5538350000000000 O
   0.9517319999999990    0.2148580000000000    0.4455880000000000 O
   0.4385119999999990    0.0517700000000000    0.5972480000000000 O
   0.7803400000000000    0.4422620000000000    0.5049340000000000 O
   0.2165040000000000    0.5619800000000000    0.6196060000000000 O
   0.5619090000000000    0.9454140000000000    0.5285690000000000 O
   0.0586490000000000    0.7769960000000000    0.6785490000000000 O
   0.9535300000000001    0.2143520000000000    0.5705890000000000 O
   0.4402700000000001    0.0581369999999990    0.7210040000000000 O
   0.7727720000000000    0.4410650000000000    0.6309279999999990 O
   0.2186570000000000    0.5629850000000000    0.7438200000000000 O
   0.5611380000000000    0.9559059999999990    0.6531610000000000 O
   0.0562620000000000    0.7814360000000000    0.8028600000000000 O
   0.9557319999999990    0.2164120000000000    0.6957949999999991 O
   0.4405929999999990    0.0475870000000000    0.8467870000000000 O
   0.7795670000000000    0.4417919999999990    0.7553350000000000 O
   0.2221030000000000    0.5550389999999999    0.8700669999999990 O
   0.5649959999999991    0.9481290000000000    0.7781900000000000 O
   0.0614539999999990    0.7801110000000000    0.9296329999999990 O
   0.9536009999999990    0.2117129999999990    0.8203570000000000 O
   0.4711980000000000    0.0474049999999990    0.9675700000000000 O
   0.7887689999999991    0.4392450000000000    0.8790530000000000 O
   0.2044590000000000    0.5722900000000001    0.9968490000000000 O
   0.5657120000000000    0.9467460000000000    0.9021579999999990 O
   0.9440229999999999    0.2304119999999990    0.9460850000000000 O
