Ba2 In2 O6
1.0
   3.0095980000000000   -3.0457299999999998    0.0000000000000000
   3.0095980000000000    3.0457299999999998    0.0000000000000000
   0.0000000000000000    0.0000000000000000    8.6499319999999997
Ba In O
2 2 6
direct
   0.0013540000000000    0.9986459999999990    0.2655560000000000 Ba
   0.0013540000000000    0.9986459999999990    0.7344440000000000 Ba
   0.5042880000000000    0.4957120000000000    0.5000000000000000 In
   0.4760620000000000    0.5239380000000000    0.0000000000000000 In
   0.5132940000000000    0.4867059999999990    0.2466229999999990 O
   0.5132940000000000    0.4867059999999990    0.7533770000000000 O
   0.0043340000000000    0.5058870000000000    0.5000000000000000 O
   0.4941129999999990    0.9956659999999991    0.5000000000000000 O
   0.3708840000000000    0.0231770000000000    0.0000000000000000 O
   0.9768230000000000    0.6291160000000000    0.0000000000000000 O
