Eu1 Mg1 V1 O3
1.0
   4.0749571199999997   -0.2119309200000000   -0.0108991900000000
  -0.3243857100000000    7.1168590900000002    0.0048889600000000
  -0.0026057100000000   -0.1096121400000000    3.3581874500000000
Eu Mg V O
1 1 1 3
direct
   0.9363554900000001    0.0723409700000000    0.9837420900000000 Eu
   0.0393356800000000    0.5622197400000000    0.0177278300000000 Mg
   0.5051530100000000    0.3677696100000000    0.5024260900000000 V
   0.0102543100000000    0.3834058100000000    0.5049385500000000 O
   0.4756280800000000    0.0915915200000000    0.4780552999999990 O
   0.5332734400000000    0.5226733400000000    0.0131121500000000 O
