Ca3 Sn3 S9
1.0
  -3.4185159999999999    5.9210419999999999    0.0000000000000000
  -6.8370309999999996    0.0000000000000000    0.0000000000000000
  -3.4185159999999999    1.9736810000000000    9.5842309999999991
Ca Sn S
3 3 9
direct
   0.0000000000000000    0.0000000000000000    0.0000000000000000 Ca
   0.2584579999999990    0.2584579999999990    0.2246240000000000 Ca
   0.7415419999999990    0.7415419999999990    0.7753760000000000 Ca
   0.5000000000000000    0.5000000000000000    0.5000000000000000 Sn
   0.3917569999999990    0.3917569999999990    0.8247270000000000 Sn
   0.6082430000000000    0.6082430000000000    0.1752729999999990 Sn
   0.0000000000000000    0.5000000000000000    0.0000000000000000 S
   0.5000000000000000    0.5000000000000000    0.0000000000000000 S
   0.5000000000000000    0.0000000000000000    0.0000000000000000 S
   0.7815639999999990    0.2717110000000000    0.6750140000000000 S
   0.2717110000000000    0.2717110000000000    0.6750140000000000 S
   0.2717110000000000    0.7815639999999990    0.6750140000000000 S
   0.2184360000000000    0.7282890000000000    0.3249860000000000 S
   0.7282890000000000    0.7282890000000000    0.3249860000000000 S
   0.7282890000000000    0.2184360000000000    0.3249860000000000 S
