Yb1 H3 Pd1
1.0
   3.6450679814218283    0.0000000000000000   -0.0000000000000000
  -0.0000000000000000    3.6450679814218283   -0.0000000000000000
   0.0000000000000000    0.0000000000000000    3.6450679814218283
Yb H Pd
1 3 1
direct
   0.5000000000000000    0.5000000000000000    0.5000000000000000 Yb
   0.0000000000000000    0.0000000000000000    0.5000000000000000 H
   0.0000000000000000    0.5000000000000000    0.0000000000000000 H
   0.5000000000000000    0.0000000000000000    0.0000000000000000 H
   0.0000000000000000    0.0000000000000000    0.0000000000000000 Pd
