Cs2 Ho2 Co2 Se6
1.0
   4.1080300000000003    0.0000000000000000    0.0000000000000000
  -2.0540150000000001    8.1285299999999996    0.0000000000000000
   0.0000000000000000    0.0000000000000000   10.8633260000000007
Cs Ho Co Se
2 2 2 6
direct
   0.7403630000000000    0.4807260000000000    0.7500000000000000 Cs
   0.2596370000000000    0.5192740000000000    0.2500000000000000 Cs
   0.0000000000000000    0.0000000000000000    0.5000000000000000 Ho
   0.0000000000000000    0.0000000000000000    0.0000000000000000 Ho
   0.5338379999999990    0.0676760000000000    0.2500000000000000 Co
   0.4661619999999990    0.9323239999999990    0.7500000000000000 Co
   0.0528910000000000    0.1057820000000000    0.7500000000000000 Se
   0.9471090000000000    0.8942180000000000    0.2500000000000000 Se
   0.3856870000000000    0.7713740000000000    0.9348100000000000 Se
   0.6143130000000000    0.2286260000000000    0.0651900000000000 Se
   0.6143130000000000    0.2286260000000000    0.4348100000000000 Se
   0.3856870000000000    0.7713740000000000    0.5651900000000001 Se
