Fe4 Si4 O12
1.0
   5.2046304299999999   -0.0210325400000000   -0.8582465500000001
   2.5582254000000000    4.3883935500000000    4.3853358000000000
   2.5946499799999998   -4.4186901800000005    4.3935984299999999
Fe Si O
4 4 12
direct
   0.2459814100000000    0.7956303900000000    0.7095242900000001 Fe
   0.7540036900000000    0.2043770300000000    0.2904720000000000 Fe
   0.2326147500000000    0.0770871200000000    0.4132000900000000 Fe
   0.7674016800000000    0.9228898800000001    0.5868190200000000 Fe
   0.2362301400000000    0.2236809400000000    0.8951811400000000 Si
   0.2673681900000000    0.5929052100000000    0.2747483900000000 Si
   0.7637684800000000    0.7763161400000000    0.1048207100000000 Si
   0.7326265300000000    0.4070997700000000    0.7252497600000000 Si
   0.9789842900000000    0.3926312600000000    0.8318679300000000 O
   0.5239263900000000    0.6645040600000001    0.1092994400000000 O
   0.0210110700000000    0.6073837600000001    0.1681375500000000 O
   0.4760726500000000    0.3354943400000000    0.8906814700000000 O
   0.1279787500000000    0.1285861200000000    0.1279548500000000 O
   0.3741297700000000    0.3574156600000000    0.3608051800000000 O
   0.8720300900000000    0.8714160999999990    0.8720519400000000 O
   0.6258731800000000    0.6425910400000000    0.6391826500000000 O
   0.8491889800000000    0.2389081700000000    0.5495202900000000 O
   0.6405398200000000    0.9472298200000000    0.2779499900000000 O
   0.1508068600000000    0.7610870900000000    0.4504849100000000 O
   0.3594652800000000    0.0527660900000000    0.7220483999999990 O
