Sr1 Cu1 O3
1.0
   3.8383774399999999   -0.0000000000000000    0.0000000000000000
   0.0000000000000000    3.8384602299999999   -0.0000000000000000
   0.0000000000000000    0.0000000000000000    3.8383653400000002
Sr Cu O
1 1 3
direct
   0.5000000000000000    0.5000000000000000    0.5000000000000000 Sr
   0.0000000000000000    0.0000000000000000   -0.0000000000000000 Cu
   0.5000000000000000    0.0000000000000000    0.0000000000000000 O
   0.0000000000000000    0.5000000000000000   -0.0000000000000000 O
  -0.0000000000000000    0.0000000000000000    0.5000000000000000 O
