Tl1 Cd1 F3
1.0
  -0.0010817200000000   -4.4186360999999996   -0.0288899000000000
  -4.4192387799999997    0.0085551600000000   -0.0166340600000000
   0.0131486100000000    0.0378960400000000   -4.4308075599999999
Tl Cd F
1 1 3
direct
   0.0143272600000000    0.9685673200000000    0.9575295300000001 Tl
   0.4922350900000000    0.4941257400000000    0.4892169500000000 Cd
   0.4722714600000000   -0.0020484900000000    0.5253205800000000 F
   0.9892509700000001    0.5191388000000000    0.5233570100000000 F
   0.4719172100000000    0.5202146400000001    0.9945749300000000 F
