Rb2 Sb2 Br2 F6
1.0
   4.5652159999999995    0.0000000000000000    0.0000000000000000
  -1.8432719999999989    7.6591370000000003    0.0000000000000000
  -1.4405710000000000   -3.6258080000000001    8.2230270000000001
Rb Sb Br F
2 2 2 6
direct
   0.9881430000000000    0.3128170000000000    0.6529330000000000 Rb
   0.0118570000000000    0.6871830000000000    0.3470669999999990 Rb
   0.3193390000000000    0.1598429999999990    0.2089600000000000 Sb
   0.6806610000000000    0.8401569999999990    0.7910400000000001 Sb
   0.4365610000000000    0.7725069999999991    0.0690279999999990 Br
   0.5634390000000000    0.2274930000000000    0.9309719999999990 Br
   0.6055050000000000    0.5593030000000000    0.6839259999999990 F
   0.6993750000000000    0.8794240000000000    0.5852700000000001 F
   0.3006250000000000    0.1205759999999990    0.4147300000000000 F
   0.3944950000000000    0.4406970000000000    0.3160739999999990 F
   0.2221469999999990    0.7645459999999999    0.6996329999999999 F
   0.7778530000000000    0.2354540000000000    0.3003670000000000 F
