K8 Sn8 Au8 Se24
1.0
   8.5575119999999991    0.0000000000000000    0.0000000000000000
   0.0000000000000000    8.5575119999999991    0.0000000000000000
   0.0000000000000000    0.0000000000000000   20.2968060000000001
K Sn Au Se
8 8 8 24
direct
   0.5000000000000000    0.5000000000000000    0.2455830000000000 K
   0.5000000000000000    0.5000000000000000    0.7455830000000000 K
   0.0000000000000000    0.0000000000000000    0.3994230000000000 K
   0.0000000000000000    0.0000000000000000    0.8994230000000000 K
   0.0000000000000000    0.0000000000000000    0.6010510000000000 K
   0.0000000000000000    0.0000000000000000    0.1010510000000000 K
   0.5000000000000000    0.5000000000000000    0.4492300000000000 K
   0.5000000000000000    0.5000000000000000    0.9492300000000001 K
   0.0000000000000000    0.5000000000000000    0.0889350000000000 Sn
   0.5000000000000000    0.0000000000000000    0.0889350000000000 Sn
   0.0000000000000000    0.5000000000000000    0.5889350000000000 Sn
   0.5000000000000000    0.0000000000000000    0.5889350000000000 Sn
   0.0000000000000000    0.5000000000000000    0.9118750000000000 Sn
   0.5000000000000000    0.0000000000000000    0.9118750000000000 Sn
   0.0000000000000000    0.5000000000000000    0.4118750000000000 Sn
   0.5000000000000000    0.0000000000000000    0.4118750000000000 Sn
   0.9984710000000000    0.6829630000000000    0.2496650000000000 Au
   0.0015290000000000    0.3170370000000000    0.2496650000000000 Au
   0.3170370000000000    0.9984710000000000    0.2496650000000000 Au
   0.6829630000000000    0.0015290000000000    0.2496650000000000 Au
   0.0015290000000000    0.6829630000000000    0.7496649999999990 Au
   0.9984710000000000    0.3170370000000000    0.7496649999999990 Au
   0.6829630000000000    0.9984710000000000    0.7496649999999990 Au
   0.3170370000000000    0.0015290000000000    0.7496649999999990 Au
   0.3333850000000000    0.1528600000000000    0.4998760000000000 Se
   0.6666150000000000    0.8471400000000001    0.4998760000000000 Se
   0.8471400000000001    0.3333850000000000    0.4998760000000000 Se
   0.1528600000000000    0.6666150000000000    0.4998760000000000 Se
   0.6666150000000000    0.1528600000000000    0.9998760000000000 Se
   0.3333850000000000    0.8471400000000001    0.9998760000000000 Se
   0.1528600000000000    0.3333850000000000    0.9998760000000000 Se
   0.8471400000000001    0.6666150000000000    0.9998760000000000 Se
   0.3233540000000000    0.8163710000000000    0.3442240000000000 Se
   0.6766460000000000    0.1836290000000000    0.3442240000000000 Se
   0.1836290000000000    0.3233540000000000    0.3442240000000000 Se
   0.8163710000000000    0.6766460000000000    0.3442240000000000 Se
   0.6766460000000000    0.8163710000000000    0.8442240000000000 Se
   0.3233540000000000    0.1836290000000000    0.8442240000000000 Se
   0.8163710000000000    0.3233540000000000    0.8442240000000000 Se
   0.1836290000000000    0.6766460000000000    0.8442240000000000 Se
   0.6777250000000000    0.1823940000000000    0.6562330000000000 Se
   0.3222750000000000    0.8176059999999991    0.6562330000000000 Se
   0.8176059999999991    0.6777250000000000    0.6562330000000000 Se
   0.1823940000000000    0.3222750000000000    0.6562330000000000 Se
   0.3222750000000000    0.1823940000000000    0.1562329999999990 Se
   0.6777250000000000    0.8176059999999991    0.1562329999999990 Se
   0.1823940000000000    0.6777250000000000    0.1562329999999990 Se
   0.8176059999999991    0.3222750000000000    0.1562329999999990 Se
