K1 Ho1 O3
1.0
   4.4483540000000001    0.0000000000000000    0.0000000000000000
   0.0000000000000000    4.4483540000000001    0.0000000000000000
   0.0000000000000000    0.0000000000000000    4.4483540000000001
K Ho O
1 1 3
direct
   0.0000000000000000    0.0000000000000000    0.0000000000000000 K
   0.5000000000000000    0.5000000000000000    0.5000000000000000 Ho
   0.5000000000000000    0.5000000000000000    0.0000000000000000 O
   0.5000000000000000    0.0000000000000000    0.5000000000000000 O
   0.0000000000000000    0.5000000000000000    0.5000000000000000 O
