Tb1 Co1 Si3
1.0
  -2.0199141699999998    2.0199141699999998    4.7455053500000002
   2.0199141699999998   -2.0199141699999998    4.7455053500000002
   2.0199141699999998    2.0199141699999998   -4.7455053500000002
Tb Co Si
1 1 3
direct
   0.0036079600000000    0.0036079600000000    0.0000000000000000 Tb
   0.6600169800000000    0.6600169800000000    0.0000000000000000 Co
   0.4282947900000000    0.4282947900000000    0.0000000000000000 Si
   0.2615401400000000    0.7615401400000000    0.5000000000000000 Si
   0.7615401400000000    0.2615401400000000    0.5000000000000000 Si
