Rb1 Mg1 Nb1 O3
1.0
   5.1521185000000003    0.5948037800000000   -0.5948037800000000
   0.5949778200000000    5.1516063000000001   -0.5961523000000000
  -0.5949778200000000   -0.5961523000000000    5.1516063000000001
Rb Mg Nb O
1 1 1 3
direct
   0.4999296000000000    0.5045110600000000    0.4954889400000000 Rb
   0.1669181900000000    0.1698741400000000    0.8301258600000000 Mg
   0.9048465200000000    0.9073830300000000    0.0926169700000000 Nb
   0.5577721600000000    0.0615963200000000    0.9384036800000001 O
   0.0602667600000000    0.5610323400000000    0.9377299000000000 O
   0.0602667600000000    0.0622700999999990    0.4389676600000000 O
