Y6 Ga6 O18
1.0
   3.0668110000000000   -5.3118730000000003    0.0000000000000000
   3.0668110000000000    5.3118730000000003    0.0000000000000000
   0.0000000000000000    0.0000000000000000   11.7315439999999995
Y Ga O
6 6 18
direct
   0.6666670000000000    0.3333330000000000    0.2300150000000000 Y
   0.3333330000000000    0.6666670000000000    0.7300150000000000 Y
   0.6666670000000000    0.3333330000000000    0.7300150000000000 Y
   0.3333330000000000    0.6666670000000000    0.2300150000000000 Y
   0.0000000000000000    0.0000000000000000    0.7708739999999999 Y
   0.0000000000000000    0.0000000000000000    0.2708740000000000 Y
   0.6657160000000000    0.0000000000000000    0.4967410000000000 Ga
   0.6657160000000000    0.6657160000000000    0.9967410000000000 Ga
   0.0000000000000000    0.3342839999999990    0.9967410000000000 Ga
   0.0000000000000000    0.6657160000000000    0.4967410000000000 Ga
   0.3342839999999990    0.3342839999999990    0.4967410000000000 Ga
   0.3342839999999990    0.0000000000000000    0.9967410000000000 Ga
   0.6666670000000000    0.3333330000000000    0.0158360000000000 O
   0.3333330000000000    0.6666670000000000    0.5158360000000000 O
   0.6666670000000000    0.3333330000000000    0.5158360000000000 O
   0.3333330000000000    0.6666670000000000    0.0158360000000000 O
   0.0000000000000000    0.0000000000000000    0.9744060000000000 O
   0.0000000000000000    0.0000000000000000    0.4744060000000000 O
   0.3588480000000000    0.0000000000000000    0.8353570000000000 O
   0.3588480000000000    0.3588480000000000    0.3353569999999990 O
   0.0000000000000000    0.6411519999999991    0.3353569999999990 O
   0.0000000000000000    0.3588480000000000    0.8353570000000000 O
   0.6411519999999991    0.6411519999999991    0.8353570000000000 O
   0.6411519999999991    0.0000000000000000    0.3353569999999990 O
   0.3073790000000000    0.0000000000000000    0.1592420000000000 O
   0.3073790000000000    0.3073790000000000    0.6592420000000000 O
   0.0000000000000000    0.6926209999999990    0.6592420000000000 O
   0.0000000000000000    0.3073790000000000    0.1592420000000000 O
   0.6926209999999990    0.6926209999999990    0.1592420000000000 O
   0.6926209999999990    0.0000000000000000    0.6592420000000000 O
