K4 Hg4 F12
1.0
   6.4039338499999996    0.0000000000000000    0.0000000000000000
   0.0000000000000000    6.4161926700000000    0.0000000000000000
   0.0000000000000000    0.0000000000000000    9.0487794699999995
K Hg F
4 4 12
direct
   0.0000000000000000   -0.0000000000000000    0.7500000000000000 K
   0.5000000000000000    0.5000000000000000    0.7500000000000000 K
   0.5000000000000000    0.5000000000000000    0.2500000000000000 K
  -0.0000000000000000    0.0000000000000000    0.2500000000000000 K
  -0.0000000000000000    0.5000000000000000    0.0000000000000000 Hg
   0.5000000000000000   -0.0000000000000000    0.5000000000000000 Hg
   0.5000000000000000    0.0000000000000000   -0.0000000000000000 Hg
  -0.0000000000000000    0.5000000000000000    0.5000000000000000 Hg
   0.7500000000000000    0.7500000000000000    0.5000000000000000 F
   0.2500000000000000    0.7500000000000000   -0.0000000000000000 F
   0.7500000000000000    0.2500000000000000    0.5000000000000000 F
   0.2500000000000000    0.2500000000000000    0.0000000000000000 F
   0.2500000000000000    0.2500000000000000    0.5000000000000000 F
   0.7500000000000000    0.2500000000000000   -0.0000000000000000 F
   0.2500000000000000    0.7500000000000000    0.5000000000000000 F
   0.7500000000000000    0.7500000000000000   -0.0000000000000000 F
   0.0000000000000000    0.5000000000000000    0.7500000000000000 F
   0.5000000000000000    0.0000000000000000    0.7500000000000000 F
   0.5000000000000000    0.0000000000000000    0.2500000000000000 F
  -0.0000000000000000    0.5000000000000000    0.2500000000000000 F
