La4 Mn4 O12
1.0
  -0.0000200000000000   -0.0000010000000000   -4.0214400000000001
  -5.5974009999999996   -5.5595960000000000   -0.0000310000000000
  -5.5504030000000002    5.5126749999999998   -0.0000280000000000
La Mn O
4 4 12
direct
   0.4999989999999990    0.2498910000000000    0.2499980000000000 La
   0.5000019999999999    0.7501059999999991    0.7500009999999990 La
   0.4999980000000000    0.2500340000000000    0.7500230000000000 La
   0.5000019999999999    0.7499600000000001    0.2499789999999990 La
   0.0000200000000000    0.9999939999999991    0.5000050000000000 Mn
   0.9999990000000000    0.4999929999999990    0.4999860000000000 Mn
   0.9999849999999991    0.5000240000000000    0.9999939999999991 Mn
   0.0000000000000000    0.9999889999999991    0.0000080000000000 Mn
   0.4999510000000000    0.5000110000000000    0.9999950000000000 O
   0.5000439999999990    0.9999960000000000    0.5000070000000000 O
   0.4999980000000000    0.9999969999999990    0.0000030000000000 O
   0.5000019999999999    0.5000050000000000    0.4999980000000000 O
   0.9999990000000000    0.2422850000000000    0.0579900000000000 O
   0.0000060000000000    0.7423909999999990    0.5580170000000000 O
   0.0000020000000000    0.4398160000000000    0.7401829999999990 O
   0.0000000000000000    0.9397409999999990    0.2401620000000000 O
   0.9999870000000000    0.7577280000000000    0.9420029999999990 O
   0.0000060000000000    0.2575969999999990    0.4419900000000000 O
   0.9999969999999990    0.5601860000000000    0.2598100000000000 O
   0.0000010000000000    0.0602539999999990    0.7598469999999991 O
