Na2 Sb2 O6
1.0
   4.7681763699999999   -0.0126726700000000    3.8129558800000001
   1.8257708099999990    4.4047968900000001    3.8129547800000001
  -0.0190253700000000   -0.0126704600000000    6.1052250099999998
Na Sb O
2 2 6
direct
   0.6398432100000000    0.6398432100000000    0.6398432100000000 Na
   0.3601567900000000    0.3601567900000000    0.3601567900000000 Na
   0.8393855500000000    0.8393855500000000    0.8393855500000000 Sb
   0.1606144500000000    0.1606144500000000    0.1606144500000000 Sb
   0.9584398500000000    0.1935431700000000    0.5602937100000001 O
   0.1935431700000000    0.5602937100000001    0.9584398500000000 O
   0.5602937100000001    0.9584398500000000    0.1935431700000000 O
   0.0415601500000000    0.8064568300000000    0.4397062900000000 O
   0.4397062900000000    0.0415601500000000    0.8064568300000000 O
   0.8064568300000000    0.4397062900000000    0.0415601500000000 O
