Ho6 Ga6 O18
1.0
   3.0066994100000000   -5.2077164099999997    0.0000007400000000
   3.0066993100000001    5.2077167800000002    0.0000007500000000
   0.0000028300000000    0.0000000100000000   11.6362517899999993
Ho Ga O
6 6 18
direct
   0.3333329700000000    0.6666663600000000    0.2297554600000000 Ho
   0.0000003200000000    0.0000003300000000    0.2715576100000000 Ho
   0.9999996200000000    0.9999994700000000    0.7715580600000000 Ho
   0.3333329900000000    0.6666670800000000    0.7297552900000001 Ho
   0.6666673400000001    0.3333329200000000    0.7297557400000000 Ho
   0.6666662200000000    0.3333329800000000    0.2297557999999990 Ho
  -0.0000051700000000    0.6658502600000000    0.4967637600000000 Ga
   0.0000051600000000    0.3341505900000000    0.9967640999999990 Ga
   0.3341487500000000    0.3341487700000000    0.4967639400000000 Ga
   0.6658523500000000    0.6658523400000000    0.9967653600000000 Ga
   0.3341504900000000    0.0000051700000000    0.9967641300000000 Ga
   0.6658501900000000   -0.0000050500000000    0.4967638400000000 Ga
  -0.0000015100000000    0.6940752200000000    0.6594569900000000 O
  -0.0000009800000000    0.6396383500000000    0.3352615800000000 O
   0.0000009300000000    0.3603615200000000    0.8352612300000000 O
   0.0000011500000000    0.3059235700000000    0.1594568300000000 O
   0.3333335800000000    0.6666673300000000    0.0156340300000000 O
   0.3333329800000000    0.6666665200000000    0.5156344500000000 O
  -0.0000010000000000   -0.0000009800000000    0.4744987300000000 O
   0.0000011600000000    0.0000010400000000    0.9744981100000000 O
   0.3059225800000000    0.3059222400000000    0.6594577700000001 O
   0.3603594900000000    0.3603598100000000    0.3352625999999990 O
   0.3059235999999990    0.0000015900000000    0.1594568300000000 O
   0.6396398999999990    0.6396398700000000    0.8352611900000000 O
   0.6940778700000000    0.6940778500000000    0.1594567400000000 O
   0.3603613600000000    0.0000005400000000    0.8352611999999990 O
   0.6666664800000001    0.3333327900000000    0.5156341700000000 O
   0.6666674900000000    0.3333338999999990    0.0156338500000000 O
   0.6396380600000000   -0.0000010200000000    0.3352615800000000 O
   0.6940756200000000   -0.0000013400000000    0.6594570300000000 O
