Ba14 Pt14 O42
1.0
  -2.9328930000000000   -5.0799200000000004    0.0000000000000000
  -2.9328930000000000    5.0799200000000004    0.0000000000000000
   0.0000000000000000    0.0000000000000000  -34.9964110000000019
Ba Pt O
14 14 42
direct
   0.0000000000000000    0.0000000000000000    0.8938640000000000 Ba
   0.0000000000000000    0.0000000000000000    0.1061360000000000 Ba
   0.0000000000000000    0.0000000000000000    0.3938640000000000 Ba
   0.0000000000000000    0.0000000000000000    0.6061360000000000 Ba
   0.6666670000000000    0.3333330000000000    0.8180550000000000 Ba
   0.3333330000000000    0.6666670000000000    0.1819450000000000 Ba
   0.3333330000000000    0.6666670000000000    0.3180550000000000 Ba
   0.6666670000000000    0.3333330000000000    0.6819450000000000 Ba
   0.6666670000000000    0.3333330000000000    0.2500000000000000 Ba
   0.3333330000000000    0.6666670000000000    0.7500000000000000 Ba
   0.6666670000000000    0.3333330000000000    0.9582719999999991 Ba
   0.3333330000000000    0.6666670000000000    0.0417280000000000 Ba
   0.3333330000000000    0.6666670000000000    0.4582719999999990 Ba
   0.6666670000000000    0.3333330000000000    0.5417280000000000 Ba
   0.0000000000000000    0.0000000000000000    0.7901190000000000 Pt
   0.0000000000000000    0.0000000000000000    0.2098809999999990 Pt
   0.0000000000000000    0.0000000000000000    0.2901189999999990 Pt
   0.0000000000000000    0.0000000000000000    0.7098810000000000 Pt
   0.0000000000000000    0.0000000000000000    0.0000000000000000 Pt
   0.0000000000000000    0.0000000000000000    0.5000000000000000 Pt
   0.6666670000000000    0.3333330000000000    0.4362040000000000 Pt
   0.3333330000000000    0.6666670000000000    0.5637960000000000 Pt
   0.3333330000000000    0.6666670000000000    0.9362039999999990 Pt
   0.6666670000000000    0.3333330000000000    0.0637959999999990 Pt
   0.6666670000000000    0.3333330000000000    0.3564440000000000 Pt
   0.3333330000000000    0.6666670000000000    0.6435560000000000 Pt
   0.3333330000000000    0.6666670000000000    0.8564440000000000 Pt
   0.6666670000000000    0.3333330000000000    0.1435560000000000 Pt
   0.8206380000000000    0.1793620000000000    0.3171250000000000 O
   0.1793620000000000    0.8206380000000000    0.6828750000000000 O
   0.3587229999999990    0.1793620000000000    0.3171250000000000 O
   0.1793620000000000    0.8206380000000000    0.8171250000000000 O
   0.6412770000000000    0.8206380000000000    0.6828750000000000 O
   0.8206380000000000    0.1793620000000000    0.1828749999999990 O
   0.8206380000000000    0.6412770000000000    0.3171250000000000 O
   0.6412770000000000    0.8206380000000000    0.8171250000000000 O
   0.1793620000000000    0.3587229999999990    0.6828750000000000 O
   0.3587229999999990    0.1793620000000000    0.1828749999999990 O
   0.1793620000000000    0.3587229999999990    0.8171250000000000 O
   0.8206380000000000    0.6412770000000000    0.1828749999999990 O
   0.8520639999999990    0.1479359999999990    0.7500000000000000 O
   0.1479359999999990    0.8520639999999990    0.2500000000000000 O
   0.2958710000000000    0.1479359999999990    0.7500000000000000 O
   0.7041290000000000    0.8520639999999990    0.2500000000000000 O
   0.8520639999999990    0.7041290000000000    0.7500000000000000 O
   0.1479359999999990    0.2958710000000000    0.2500000000000000 O
   0.4831419999999990    0.5168579999999990    0.8956040000000000 O
   0.5168579999999990    0.4831419999999990    0.1043959999999990 O
   0.0337159999999990    0.5168579999999990    0.8956040000000000 O
   0.5168579999999990    0.4831419999999990    0.3956039999999990 O
   0.9662839999999990    0.4831419999999990    0.1043959999999990 O
   0.4831419999999990    0.5168579999999990    0.6043959999999990 O
   0.4831419999999990    0.9662839999999990    0.8956040000000000 O
   0.9662839999999990    0.4831419999999990    0.3956039999999990 O
   0.5168579999999990    0.0337159999999990    0.1043959999999990 O
   0.0337159999999990    0.5168579999999990    0.6043959999999990 O
   0.5168579999999990    0.0337159999999990    0.3956039999999990 O
   0.4831419999999990    0.9662839999999990    0.6043959999999990 O
   0.8489890000000000    0.1510110000000000    0.4604860000000000 O
   0.1510110000000000    0.8489890000000000    0.5395139999999990 O
   0.3020210000000000    0.1510110000000000    0.4604860000000000 O
   0.1510110000000000    0.8489890000000000    0.9604860000000000 O
   0.6979790000000000    0.8489890000000000    0.5395139999999990 O
   0.8489890000000000    0.1510110000000000    0.0395140000000000 O
   0.8489890000000000    0.6979790000000000    0.4604860000000000 O
   0.6979790000000000    0.8489890000000000    0.9604860000000000 O
   0.1510110000000000    0.3020210000000000    0.5395139999999990 O
   0.3020210000000000    0.1510110000000000    0.0395140000000000 O
   0.1510110000000000    0.3020210000000000    0.9604860000000000 O
   0.8489890000000000    0.6979790000000000    0.0395140000000000 O
