Tl4 In4 Hg4 S12
1.0
   2.0076179999999999    7.1227609999999997    0.0000000000000000
  -2.0076179999999999    7.1227609999999997    0.0000000000000000
   0.0000000000000000    5.3448500000000001   21.1850810000000003
Tl In Hg S
4 4 4 12
direct
   0.1003260000000000    0.8889680000000000    0.9215770000000000 Tl
   0.1110319999999990    0.8996740000000000    0.5784230000000000 Tl
   0.8996740000000000    0.1110319999999990    0.0784229999999990 Tl
   0.8889680000000000    0.1003260000000000    0.4215770000000000 Tl
   0.8159919999999991    0.6980020000000000    0.8244049999999991 In
   0.3019980000000000    0.1840080000000000    0.6755949999999999 In
   0.1840080000000000    0.3019980000000000    0.1755950000000000 In
   0.6980020000000000    0.8159919999999991    0.3244050000000000 In
   0.5675120000000000    0.4324880000000000    0.7500000000000000 Hg
   0.4324880000000000    0.5675120000000000    0.2500000000000000 Hg
   0.5000000000000000    0.0000000000000000    0.0000000000000000 Hg
   0.0000000000000000    0.5000000000000000    0.5000000000000000 Hg
   0.4378260000000000    0.3152959999999990    0.8472640000000000 S
   0.6847040000000000    0.5621740000000000    0.6527360000000000 S
   0.5621740000000000    0.6847040000000000    0.1527359999999990 S
   0.3152959999999990    0.4378260000000000    0.3472639999999990 S
   0.2072070000000000    0.0927200000000000    0.7967339999999991 S
   0.9072800000000001    0.7927930000000000    0.7032659999999999 S
   0.7927930000000000    0.9072800000000001    0.2032660000000000 S
   0.0927200000000000    0.2072070000000000    0.2967340000000000 S
   0.7454010000000000    0.5768409999999990    0.9430649999999990 S
   0.4231590000000000    0.2545989999999990    0.5569350000000000 S
   0.2545989999999990    0.4231590000000000    0.0569350000000000 S
   0.5768409999999990    0.7454010000000000    0.4430650000000000 S
