V4 H4 O12
1.0
  -3.6732469999999999    0.0000000000000000    0.0000000000000000
   1.8158050000000001    5.9098829999999998    0.0000000000000000
  -0.1343030000000000   -0.9109470000000000  -12.0761280000000006
V H O
4 4 12
direct
   0.9267569999999991    0.8474360000000000    0.8675649999999990 V
   0.0740960000000000    0.1522590000000000    0.1331370000000000 V
   0.2202529999999990    0.4339460000000000    0.8659779999999990 V
   0.7798539999999990    0.5668110000000000    0.1339080000000000 V
   0.8812369999999990    0.2895390000000000    0.4681500000000000 H
   0.5387210000000000    0.0824920000000000    0.4913389999999990 H
   0.5326959999999999    0.6810900000000001    0.4949820000000000 H
   0.2719370000000000    0.7600819999999990    0.5807660000000000 H
   0.3900150000000000    0.7756940000000000    0.8939070000000000 O
   0.6113850000000000    0.2255559999999990    0.1059170000000000 O
   0.0758570000000000    0.1473800000000000    0.9164580000000000 O
   0.9243209999999999    0.8519800000000001    0.0815380000000000 O
   0.7564919999999991    0.5085860000000000    0.9020659999999990 O
   0.2437820000000000    0.4916750000000000    0.0978300000000000 O
   0.9325329999999999    0.8455520000000000    0.7346370000000000 O
   0.0684029999999990    0.1500680000000000    0.2650880000000000 O
   0.2042370000000000    0.3940170000000000    0.7340329999999990 O
   0.7963220000000000    0.6104640000000000    0.2656469999999990 O
   0.6178750000000000    0.2500179999999990    0.4915110000000000 O
   0.3566560000000000    0.7727490000000000    0.5043970000000000 O
