Fe4 Sn4 O12
1.0
   5.4393149999999997   -0.0000090000000000   -0.0000670000000000
  -0.0000090000000000    5.4614409999999998    0.0001770000000000
  -0.0000180000000000    0.0001570000000000    7.8687000000000005
Fe Sn O
4 4 12
direct
   0.5069490000000000    0.4644379999999990    0.7500749999999990 Fe
   0.0069860000000000    0.0355290000000000    0.2499479999999990 Fe
   0.9930340000000000    0.9644429999999991    0.7499100000000001 Fe
   0.4930020000000000    0.5355219999999991    0.2500500000000000 Fe
   0.0000750000000000    0.5000180000000000    0.0000010000000000 Sn
   0.9999089999999990    0.5000260000000000    0.5000200000000000 Sn
   0.4999539999999991    0.0000850000000000    0.9999939999999991 Sn
   0.5001420000000000    0.9999169999999999    0.5000080000000000 Sn
   0.1241950000000000    0.4157070000000000    0.2500170000000000 O
   0.3757910000000000    0.9157069999999990    0.2500040000000000 O
   0.6242510000000000    0.0843179999999990    0.7500140000000000 O
   0.8757320000000000    0.5843170000000000    0.7500479999999990 O
   0.1705910000000000    0.1748390000000000    0.5666669999999990 O
   0.1705420000000000    0.1747550000000000    0.9333370000000000 O
   0.3295130000000000    0.6747660000000000    0.5666320000000000 O
   0.3293370000000000    0.6748529999999990    0.9332929999999990 O
   0.6705810000000000    0.3251989999999990    0.4334329999999990 O
   0.6705989999999999    0.3251960000000000    0.0666129999999990 O
   0.8294190000000000    0.8251300000000000    0.0665610000000000 O
   0.8293990000000000    0.8252360000000000    0.4333740000000000 O
