Rb6 P6 Se18
1.0
   3.7372827700000002   -6.4726670400000001   -0.0001294900000000
   3.7370222800000001    6.4725164299999998    0.0000457300000000
  -0.0002101500000000    0.0002491400000000   19.3662594100000014
Rb P Se
6 6 18
direct
   0.5815180600000001    0.2673888300000000    0.2482835300000000 Rb
   0.3141384000000000    0.7325865900000000    0.4184227200000000 Rb
   0.4184800000000000    0.6858591100000000    0.0850460400000000 Rb
   0.7326015100000001    0.3141371800000000    0.5816153800000000 Rb
   0.6858480700000000    0.4184482500000000    0.9149132500000000 Rb
   0.2673880100000000    0.5815211300000001    0.7517219100000000 Rb
   0.9243265200000000    0.8965018700000000    0.7193710400000000 P
   0.1034606999999990    0.0277874400000000    0.0526882500000000 P
   0.0278309700000000    0.1035378400000000    0.9472763600000000 P
   0.0756951900000000    0.9722090500000000    0.6139629200000000 P
   0.8965153200000000    0.9243212000000000    0.2806410600000000 P
   0.9721593400000000    0.0756934600000000    0.3860524400000000 P
   0.3000239200000000    0.2567567000000000    0.3930873000000000 Se
   0.6999635300000000    0.9567686800000000    0.9402569700000000 Se
   0.8406468500000001    0.7584568700000001    0.4465903800000000 Se
   0.1593620800000000    0.9178208300000000    0.8867435300000001 Se
   0.2200159300000000    0.7944978300000001    0.5917539200000000 Se
   0.0821814000000000    0.2416033500000000    0.2200786900000000 Se
   0.9567019700000000    0.6999413300000000    0.0597182999999990 Se
   0.2416259500000000    0.0821805100000000    0.7799107900000000 Se
   0.7943734200000000    0.2199306400000000    0.4082734200000000 Se
   0.7800337100000000    0.5744526999999990    0.7415760200000000 Se
   0.0432774000000000    0.7432340900000001    0.2736212400000000 Se
   0.4254888300000000    0.2054656000000000    0.0748944000000000 Se
   0.2056238300000000    0.4255683800000000    0.9250601300000000 Se
   0.2567884800000000    0.3000564700000000    0.6069552100000000 Se
   0.5745034100000000    0.7800163000000000    0.2584283800000000 Se
   0.9178274900000000    0.1594569500000000    0.1132473100000000 Se
   0.7584186400000000    0.8405843700000000    0.5534202300000000 Se
   0.7431800500000000    0.0432164500000000    0.7263898900000000 Se
