Tm8 Se8 O24
1.0
  12.4165860000000006    0.0000000000000000    0.0000000000000000
   0.0000000000000000    5.9172719999999996    0.0000000000000000
   0.0000000000000000    2.4095550000000001    8.3949599999999993
Tm Se O
8 8 24
direct
   0.5595000000000000    0.7589239999999990    0.9144930000000000 Tm
   0.9405000000000000    0.7589239999999990    0.4144930000000000 Tm
   0.2437240000000000    0.6363010000000000    0.8563500000000001 Tm
   0.2562760000000000    0.6363010000000000    0.3563500000000001 Tm
   0.7437239999999991    0.3636990000000000    0.6436500000000001 Tm
   0.7562759999999999    0.3636990000000000    0.1436500000000000 Tm
   0.0595000000000000    0.2410759999999990    0.5855070000000000 Tm
   0.4405000000000000    0.2410759999999990    0.0855070000000000 Tm
   0.8397500000000001    0.9539839999999991    0.0043000000000000 Se
   0.6602500000000000    0.9539839999999991    0.5043000000000000 Se
   0.9854120000000000    0.6290479999999991    0.8252780000000000 Se
   0.5145879999999990    0.6290479999999991    0.3252780000000000 Se
   0.4854119999999990    0.3709520000000000    0.6747219999999990 Se
   0.0145879999999990    0.3709520000000000    0.1747220000000000 Se
   0.3397500000000001    0.0460160000000000    0.4957000000000000 Se
   0.1602500000000000    0.0460160000000000    0.9957000000000000 Se
   0.1727989999999990    0.0125259999999990    0.8058470000000000 O
   0.3272009999999990    0.0125259999999990    0.3058470000000000 O
   0.9821129999999991    0.8696900000000001    0.6457649999999990 O
   0.2720360000000000    0.7818910000000000    0.5873619999999991 O
   0.7586529999999990    0.7477800000000001    0.5014360000000000 O
   0.5178870000000000    0.8696900000000001    0.1457650000000000 O
   0.4060109999999990    0.5941139999999990    0.9190780000000000 O
   0.2279640000000000    0.7818910000000000    0.0873620000000000 O
   0.7413470000000000    0.7477800000000001    0.0014360000000000 O
   0.5944510000000000    0.5506400000000000    0.7173100000000001 O
   0.0939889999999990    0.5941139999999990    0.4190780000000000 O
   0.0944510000000000    0.4493600000000000    0.7826900000000001 O
   0.9055489999999990    0.5506400000000000    0.2173100000000000 O
   0.9060110000000000    0.4058859999999990    0.5809219999999991 O
   0.4055490000000000    0.4493600000000000    0.2826900000000000 O
   0.2586529999999990    0.2522200000000000    0.9985640000000000 O
   0.7720359999999999    0.2181090000000000    0.9126379999999999 O
   0.5939890000000000    0.4058859999999990    0.0809220000000000 O
   0.4821129999999990    0.1303100000000000    0.8542350000000000 O
   0.2413469999999990    0.2522200000000000    0.4985639999999991 O
   0.7279639999999991    0.2181090000000000    0.4126380000000000 O
   0.0178870000000000    0.1303100000000000    0.3542349999999990 O
   0.6727989999999990    0.9874740000000000    0.6941530000000000 O
   0.8272010000000000    0.9874740000000000    0.1941530000000000 O
