Pr2 Lu2 S6
1.0
   1.9426119800000001   -6.2844701699999996   -0.0000000000000000
   1.9426119800000001    6.2844701699999996    0.0000000000000000
   0.0000000000000000   -0.0000000000000000    9.4926620300000000
Pr Lu S
2 2 6
direct
   0.7465806500000001    0.2534193500000000    0.2500000000000000 Pr
   0.2534193500000000    0.7465806500000001    0.7500000000000000 Pr
   0.0000000000000000    0.0000000000000000    0.5000000000000000 Lu
   0.0000000000000000    0.0000000000000000   -0.0000000000000000 Lu
   0.6405918300000000    0.3594081700000000    0.5618508700000000 S
   0.6405918300000000    0.3594081700000000    0.9381491300000000 S
   0.3594081700000000    0.6405918300000000    0.0618508700000000 S
   0.3594081700000000    0.6405918300000000    0.4381491300000000 S
   0.0842872300000000    0.9157127700000001    0.2500000000000000 S
   0.9157127700000001    0.0842872300000000    0.7500000000000000 S
