Cs1 Ge1 Br3
1.0
   4.1076129999999997    4.0786959999999999    0.0000000000000000
  -4.1076129999999997    4.0786959999999999    0.0000000000000000
   0.0000000000000000    0.2558150000000000    5.7223639999999998
Cs Ge Br
1 1 3
direct
   0.1010170000000000    0.1010170000000000    0.5934610000000000 Cs
   0.6309180000000000    0.6309180000000000    0.1296739999999990 Ge
   0.5912069999999990    0.5912069999999990    0.5783550000000000 Br
   0.6156659999999990    0.0753920000000000    0.1028050000000000 Br
   0.0753920000000000    0.6156659999999990    0.1028050000000000 Br
