Dy1 In1 O3
1.0
   4.1217350000000001    0.0000000000000000    0.0000000000000000
   0.0000000000000000    4.1217350000000001    0.0000000000000000
   0.0000000000000000    0.0000000000000000    4.1217350000000001
Dy In O
1 1 3
direct
   0.0000000000000000    0.0000000000000000    0.0000000000000000 Dy
   0.5000000000000000    0.5000000000000000    0.5000000000000000 In
   0.5000000000000000    0.5000000000000000    0.0000000000000000 O
   0.5000000000000000    0.0000000000000000    0.5000000000000000 O
   0.0000000000000000    0.5000000000000000    0.5000000000000000 O
