Li6 Cr6 B6 O18
1.0
  -0.0000030000000000   -0.0000290000000000    6.2930780000000004
   8.2504720000000002    0.0004040000000000   -0.0000040000000000
   4.1255870000000003    7.1453249999999997   -0.0000350000000000
Li Cr B O
6 6 6 18
direct
   0.2500090000000000    0.2698210000000000    0.0187519999999990 Li
   0.7499930000000000    0.2698230000000000    0.0187510000000000 Li
   0.2499980000000000    0.7114960000000000    0.2697430000000000 Li
   0.7500040000000000    0.7114929999999990    0.2697450000000000 Li
   0.2499920000000000    0.0187370000000000    0.7114590000000000 Li
   0.7500100000000001    0.0187370000000000    0.7114600000000001 Li
   0.5000390000000000    0.3928770000000000    0.6244689999999991 Cr
   0.4999900000000000    0.6245320000000000    0.9827039999999990 Cr
   0.9999870000000000    0.9824579999999991    0.3930120000000000 Cr
   0.0000390000000000    0.3928500000000000    0.6245300000000000 Cr
   0.9999800000000001    0.6244729999999999    0.9827070000000000 Cr
   0.4999800000000000    0.9824400000000001    0.3930059999999990 Cr
   0.2500050000000000    0.6666280000000000    0.6666230000000000 B
   0.7499960000000000    0.6666300000000001    0.6666210000000000 B
   0.0000020000000000    0.0000610000000000    0.0000300000000000 B
   0.5000010000000000    0.0000560000000000    0.0000240000000000 B
   0.2500070000000000    0.3333790000000000    0.3333060000000000 B
   0.7499920000000000    0.3333770000000000    0.3333049999999990 B
   0.2500350000000000    0.4728340000000000    0.7443390000000000 O
   0.7499690000000000    0.4728400000000000    0.7443300000000000 O
   0.2499870000000000    0.7827860000000000    0.4727280000000000 O
   0.7500000000000000    0.7827860000000000    0.4727220000000000 O
   0.2499800000000000    0.7443790000000000    0.7826879999999991 O
   0.7500230000000000    0.7443770000000000    0.7826919999999991 O
   0.9999960000000000    0.1136010000000000    0.0810050000000000 O
   0.4999980000000000    0.1135870000000000    0.0810070000000000 O
   0.0000090000000000    0.0810300000000000    0.8055580000000000 O
   0.4999949999999990    0.0810190000000000    0.8055470000000000 O
   0.9999990000000000    0.8055439999999990    0.1135590000000000 O
   0.5000010000000000    0.8055439999999990    0.1135640000000000 O
   0.2500090000000000    0.1396320000000000    0.4191760000000000 O
   0.7499709999999991    0.1396250000000000    0.4191830000000000 O
   0.2500290000000000    0.4411839999999990    0.1396710000000000 O
   0.7499779999999990    0.4411850000000000    0.1396720000000000 O
   0.2499730000000000    0.4190900000000000    0.4411569999999990 O
   0.7500230000000000    0.4190870000000000    0.4411529999999990 O
