Li3 Cu3 C3 O9
1.0
   4.1484870000000003   -7.1853910000000001    0.0000000000000000
   4.1484870000000003    7.1853910000000001    0.0000000000000000
   0.0000000000000000    0.0000000000000000    3.0542820000000002
Li Cu C O
3 3 3 9
direct
   0.9945189999999990    0.6319929999999990    0.5000000000000000 Li
   0.6374740000000000    0.0054810000000000    0.5000000000000000 Li
   0.3680070000000000    0.3625259999999990    0.5000000000000000 Li
   0.6873969999999990    0.6883200000000000    0.0000000000000000 Cu
   0.0009220000000000    0.3126029999999990    0.0000000000000000 Cu
   0.3116800000000000    0.9990779999999990    0.0000000000000000 Cu
   0.0000000000000000    0.0000000000000000    0.5000000000000000 C
   0.6666670000000000    0.3333330000000000    0.0000000000000000 C
   0.3333330000000000    0.6666670000000000    0.0000000000000000 C
   0.7221679999999990    0.2117040000000000    0.0000000000000000 O
   0.8184070000000000    0.9093709999999990    0.5000000000000000 O
   0.0909630000000000    0.1815930000000000    0.5000000000000000 O
   0.7882960000000000    0.5104640000000000    0.0000000000000000 O
   0.0906290000000000    0.9090370000000000    0.5000000000000000 O
   0.4895359999999990    0.2778319999999990    0.0000000000000000 O
   0.1542820000000000    0.5965500000000000    0.0000000000000000 O
   0.4422669999999990    0.8457180000000000    0.0000000000000000 O
   0.4034500000000000    0.5577329999999990    0.0000000000000000 O
