Na4 Nb4 O12
1.0
   5.6262369999999997    0.0000000000000000    0.0000000000000000
   0.0000000000000000    5.6792949999999998    0.0000000000000000
   0.0000000000000000    0.0000000000000000    7.8886130000000003
Na Nb O
4 4 12
direct
   0.5050600000000001    0.5070910000000000    0.2500000000000000 Na
   0.9949400000000000    0.0070910000000000    0.2500000000000000 Na
   0.4949400000000000    0.4929090000000000    0.7500000000000000 Na
   0.0050600000000000    0.9929089999999990    0.7500000000000000 Na
   0.5000000000000000    0.0000000000000000    0.0000000000000000 Nb
   0.0000000000000000    0.5000000000000000    0.5000000000000000 Nb
   0.5000000000000000    0.0000000000000000    0.5000000000000000 Nb
   0.0000000000000000    0.5000000000000000    0.0000000000000000 Nb
   0.4356779999999990    0.9985800000000001    0.2500000000000000 O
   0.0643219999999990    0.4985800000000000    0.2500000000000000 O
   0.5643220000000000    0.0014200000000000    0.7500000000000000 O
   0.9356780000000000    0.5014200000000001    0.7500000000000000 O
   0.7512439999999990    0.7514700000000001    0.0332579999999990 O
   0.7487560000000000    0.2514700000000000    0.4667420000000000 O
   0.2487559999999990    0.2485300000000000    0.5332580000000000 O
   0.2512439999999990    0.7485300000000000    0.9667420000000000 O
   0.2487559999999990    0.2485300000000000    0.9667420000000000 O
   0.2512439999999990    0.7485300000000000    0.5332580000000000 O
   0.7512439999999990    0.7514700000000001    0.4667420000000000 O
   0.7487560000000000    0.2514700000000000    0.0332579999999990 O
