Hg36 Cl12 O12
1.0
   4.6249799999999999    9.9118490000000001    0.0000000000000000
  -4.6249799999999999    9.9118490000000001    0.0000000000000000
   0.0000000000000000    6.1776200000000001   16.2801000000000009
Hg Cl O
36 12 12
direct
   0.8145850000000000    0.5098360000000000    0.6569500000000000 Hg
   0.2501260000000000    0.2856800000000000    0.6111550000000000 Hg
   0.3915500000000000    0.6277870000000000    0.8214429999999990 Hg
   0.0418040000000000    0.0964960000000000    0.2020690000000000 Hg
   0.3611100000000000    0.4474809999999990    0.0354600000000000 Hg
   0.0531160000000000    0.2892409999999990    0.8206190000000000 Hg
   0.2066930000000000    0.4654600000000000    0.8656239999999999 Hg
   0.7107589999999990    0.9468839999999999    0.6793810000000000 Hg
   0.1248000000000000    0.8439089999999990    0.5099020000000000 Hg
   0.6388900000000001    0.5525190000000000    0.9645400000000001 Hg
   0.7498739999999990    0.7143200000000001    0.3888450000000000 Hg
   0.4901640000000000    0.1854150000000000    0.8430500000000001 Hg
   0.2856800000000000    0.2501260000000000    0.1111549999999990 Hg
   0.9035040000000000    0.9581959999999990    0.2979310000000000 Hg
   0.1560909999999990    0.8752000000000001    0.9900979999999990 Hg
   0.8752000000000001    0.1560909999999990    0.4900980000000000 Hg
   0.2892409999999990    0.0531160000000000    0.3206190000000000 Hg
   0.9497549999999991    0.7197660000000000    0.0265749999999990 Hg
   0.9581959999999990    0.9035040000000000    0.7979309999999999 Hg
   0.4474809999999990    0.3611100000000000    0.5354600000000000 Hg
   0.2802340000000000    0.0502450000000000    0.4734250000000000 Hg
   0.5525190000000000    0.6388900000000001    0.4645400000000000 Hg
   0.0502450000000000    0.2802340000000000    0.9734250000000000 Hg
   0.7933070000000000    0.5345400000000000    0.1343760000000000 Hg
   0.0964960000000000    0.0418040000000000    0.7020689999999991 Hg
   0.6277870000000000    0.3915500000000000    0.3214430000000000 Hg
   0.8439089999999990    0.1248000000000000    0.0099020000000000 Hg
   0.3722129999999990    0.6084500000000000    0.6785570000000000 Hg
   0.7143200000000001    0.7498739999999990    0.8888450000000000 Hg
   0.4654600000000000    0.2066930000000000    0.3656240000000000 Hg
   0.1854150000000000    0.4901640000000000    0.3430500000000000 Hg
   0.9468839999999999    0.7107589999999990    0.1793809999999990 Hg
   0.7197660000000000    0.9497549999999991    0.5265750000000000 Hg
   0.5345400000000000    0.7933070000000000    0.6343759999999991 Hg
   0.5098360000000000    0.8145850000000000    0.1569500000000000 Hg
   0.6084500000000000    0.3722129999999990    0.1785570000000000 Hg
   0.9596560000000000    0.3388660000000000    0.5154609999999999 Cl
   0.6184370000000000    0.0572989999999990    0.2180870000000000 Cl
   0.0403440000000000    0.6611340000000000    0.4845390000000000 Cl
   0.6483270000000000    0.2702259999999990    0.6550079999999990 Cl
   0.7297739999999990    0.3516729999999990    0.8449920000000000 Cl
   0.0572989999999990    0.6184370000000000    0.7180869999999990 Cl
   0.3516729999999990    0.7297739999999990    0.3449919999999990 Cl
   0.3388660000000000    0.9596560000000000    0.0154609999999990 Cl
   0.3815630000000000    0.9427010000000000    0.7819130000000000 Cl
   0.6611340000000000    0.0403440000000000    0.9845389999999991 Cl
   0.2702259999999990    0.6483270000000000    0.1550079999999990 Cl
   0.9427010000000000    0.3815630000000000    0.2819129999999990 Cl
   0.2939370000000000    0.0458289999999990    0.1958550000000000 O
   0.6427950000000000    0.3704210000000000    0.4473270000000000 O
   0.9541710000000000    0.7060630000000000    0.3041450000000000 O
   0.3572050000000000    0.6295790000000000    0.5526730000000000 O
   0.3704210000000000    0.6427950000000000    0.9473269999999990 O
   0.7060630000000000    0.9541710000000000    0.8041450000000000 O
   0.6929029999999990    0.9855619999999990    0.4026039999999990 O
   0.0144380000000000    0.3070970000000000    0.0973960000000000 O
   0.0458289999999990    0.2939370000000000    0.6958550000000000 O
   0.9855619999999990    0.6929029999999990    0.9026040000000000 O
   0.3070970000000000    0.0144380000000000    0.5973959999999990 O
   0.6295790000000000    0.3572050000000000    0.0526730000000000 O
