Ag4 P4 O12
1.0
   4.0502580000000004    0.0000000000000000    0.0000000000000000
   0.0000000000000000    5.8726859999999999    0.0000000000000000
   0.0000000000000000    4.3916810000000002   11.1295730000000006
Ag P O
4 4 12
direct
   0.8596330000000000    0.3181310000000000    0.9095249999999990 Ag
   0.3596330000000000    0.6818689999999999    0.5904750000000000 Ag
   0.6403670000000000    0.3181310000000000    0.4095250000000000 Ag
   0.1403670000000000    0.6818689999999999    0.0904750000000000 Ag
   0.5117849999999990    0.8453090000000000    0.8289559999999990 P
   0.0117849999999990    0.1546910000000000    0.6710440000000000 P
   0.9882150000000000    0.8453090000000000    0.3289559999999990 P
   0.4882149999999990    0.1546910000000000    0.1710440000000000 P
   0.6807810000000000    0.8539120000000000    0.9390800000000000 O
   0.3505080000000000    0.6131480000000000    0.8297350000000000 O
   0.2571610000000000    0.0749150000000000    0.7870670000000000 O
   0.7571610000000000    0.9250849999999990    0.7129329999999990 O
   0.8505079999999990    0.3868520000000000    0.6702650000000000 O
   0.1807810000000000    0.1460880000000000    0.5609200000000001 O
   0.8192189999999990    0.8539120000000000    0.4390800000000000 O
   0.1494919999999990    0.6131480000000000    0.3297350000000000 O
   0.2428390000000000    0.0749150000000000    0.2870669999999990 O
   0.7428389999999990    0.9250849999999990    0.2129329999999990 O
   0.6494920000000000    0.3868520000000000    0.1702650000000000 O
   0.3192190000000000    0.1460880000000000    0.0609200000000000 O
