Ti1 Fe3 N1
1.0
   3.7380230000000001    0.0000000000000000    0.0000000000000000
   0.0000000000000000    3.7380230000000001    0.0000000000000000
   0.0000000000000000    0.0000000000000000    3.7380230000000001
Ti Fe N
1 3 1
direct
   0.5000000000000000    0.5000000000000000    0.5000000000000000 Ti
   0.5000000000000000    0.0000000000000000    0.0000000000000000 Fe
   0.0000000000000000    0.5000000000000000    0.0000000000000000 Fe
   0.0000000000000000    0.0000000000000000    0.5000000000000000 Fe
   0.0000000000000000    0.0000000000000000    0.0000000000000000 N
