V4 Ge4 O12
1.0
  -0.9737220000000000   -0.0000230000000000    5.1822189999999999
   4.9788030000000001    4.6262900000000000    0.0545880000000000
  -4.9789399999999997    4.6264330000000005   -0.0546469999999990
V Ge O
4 4 12
direct
   0.2499930000000000    0.2732219999999990    0.2732270000000000 V
   0.2499930000000000    0.9087639999999990    0.9087769999999999 V
   0.7499880000000000    0.7267659999999990    0.7267629999999990 V
   0.7499859999999990    0.0913730000000000    0.0913750000000000 V
   0.7085850000000000    0.2057100000000000    0.6056600000000001 Ge
   0.2085960000000000    0.3943089999999990    0.7942549999999990 Ge
   0.7914470000000000    0.6056570000000000    0.2057260000000000 Ge
   0.2914040000000000    0.7942659999999990    0.3943390000000000 Ge
   0.6371519999999991    0.0263739999999990    0.7878029999999990 O
   0.1371639999999990    0.2121650000000000    0.9735990000000000 O
   0.8628290000000000    0.7878170000000000    0.0263960000000000 O
   0.3628039999999990    0.9735990000000000    0.2121960000000000 O
   0.9016710000000000    0.4246280000000000    0.7070100000000000 O
   0.4016700000000000    0.2929740000000000    0.5753340000000000 O
   0.5983689999999990    0.7070390000000000    0.4246339999999990 O
   0.0983670000000000    0.5753389999999990    0.2929640000000000 O
   0.8722949999999990    0.1377670000000000    0.3788229999999990 O
   0.3722930000000000    0.6211559999999990    0.8622019999999990 O
   0.6277000000000000    0.3788300000000001    0.1377570000000000 O
   0.1276960000000000    0.8622460000000000    0.6211600000000000 O
