Al6 Mo6 O18
1.0
   2.7734860000000001   -4.8038179999999997    0.0000000000000000
   2.7734860000000001    4.8038179999999997    0.0000000000000000
   0.0000000000000000    0.0000000000000000   12.0409760000000006
Al Mo O
6 6 18
direct
   0.6666670000000000    0.3333330000000000    0.2604849999999990 Al
   0.3333330000000000    0.6666670000000000    0.7604850000000000 Al
   0.6666670000000000    0.3333330000000000    0.7604850000000000 Al
   0.3333330000000000    0.6666670000000000    0.2604849999999990 Al
   0.0000000000000000    0.0000000000000000    0.7380380000000000 Al
   0.0000000000000000    0.0000000000000000    0.2380380000000000 Al
   0.7011020000000000    0.0000000000000000    0.4990360000000000 Mo
   0.7011020000000000    0.7011020000000000    0.9990359999999990 Mo
   0.0000000000000000    0.2988980000000000    0.9990359999999990 Mo
   0.0000000000000000    0.7011020000000000    0.4990360000000000 Mo
   0.2988980000000000    0.2988980000000000    0.4990360000000000 Mo
   0.2988980000000000    0.0000000000000000    0.9990359999999990 Mo
   0.6666670000000000    0.3333330000000000    0.0345710000000000 O
   0.3333330000000000    0.6666670000000000    0.5345710000000000 O
   0.6666670000000000    0.3333330000000000    0.5345710000000000 O
   0.3333330000000000    0.6666670000000000    0.0345710000000000 O
   0.0000000000000000    0.0000000000000000    0.8968889999999990 O
   0.0000000000000000    0.0000000000000000    0.3968890000000000 O
   0.4266129999999990    0.0000000000000000    0.8366060000000000 O
   0.4266129999999990    0.4266129999999990    0.3366059999999990 O
   0.0000000000000000    0.5733870000000000    0.3366059999999990 O
   0.0000000000000000    0.4266129999999990    0.8366060000000000 O
   0.5733870000000000    0.5733870000000000    0.8366060000000000 O
   0.5733870000000000    0.0000000000000000    0.3366059999999990 O
   0.3040980000000000    0.0000000000000000    0.1810119999999990 O
   0.3040980000000000    0.3040980000000000    0.6810120000000000 O
   0.0000000000000000    0.6959020000000000    0.6810120000000000 O
   0.0000000000000000    0.3040980000000000    0.1810119999999990 O
   0.6959020000000000    0.6959020000000000    0.1810119999999990 O
   0.6959020000000000    0.0000000000000000    0.6810120000000000 O
