Dy12 B12 O36
1.0
   7.1346083499999997   -0.0147845300000000    0.5428681700000000
   1.8878373200000000    8.6400103700000006    1.3410423499999999
   0.0021357300000000    0.0066439800000000    9.7757814599999993
Dy B O
12 12 36
direct
   0.2613481200000000    0.5594221600000000    0.9730181500000000 Dy
   0.7386518800000000    0.4405778400000000    0.0269818500000000 Dy
   0.7505471300000001    0.9551056400000000    0.5199725200000000 Dy
   0.2494528700000000    0.0448943600000000    0.4800274800000000 Dy
   0.9011437999999991    0.0686714500000000    0.8370673200000001 Dy
   0.0988561999999990    0.9313285500000000    0.1629326800000000 Dy
   0.0992785600000000    0.4351525400000000    0.6704749000000000 Dy
   0.9007214400000000    0.5648474600000000    0.3295250999999990 Dy
   0.5654990600000001    0.5588455900000000    0.6579147700000000 Dy
   0.4345009400000000    0.4411544100000000    0.3420852300000000 Dy
   0.4260911300000000    0.9433090200000001    0.8444574600000000 Dy
   0.5739088700000000    0.0566909800000000    0.1555425400000000 Dy
   0.4778967600000000    0.2845795900000000    0.9221257300000000 B
   0.5221032400000000    0.7154204100000000    0.0778742700000000 B
   0.4670858100000000    0.7790567600000000    0.3852905800000000 B
   0.5329141900000001    0.2209432400000000    0.6147094200000001 B
   0.8326635200000000    0.7286954500000000    0.7935980200000000 B
   0.1673364800000000    0.2713045500000000    0.2064019800000000 B
   0.2192221500000000    0.7828538500000000    0.6920596700000000 B
   0.7807778500000000    0.2171461500000000    0.3079403300000000 B
   0.8835542400000000    0.7435425400000000    0.0512654800000000 B
   0.1164457600000000    0.2564574600000000    0.9487345200000000 B
   0.1081593700000000    0.7525302500000001    0.4480229000000000 B
   0.8918406300000000    0.2474697500000000    0.5519771000000000 B
   0.0631266200000000    0.1851272900000000    0.6297263500000000 O
   0.9368733800000000    0.8148727100000001    0.3702736500000000 O
   0.9434450200000000    0.3191587400000000    0.8732517000000000 O
   0.0565549800000000    0.6808412600000000    0.1267482999999990 O
   0.9189130500000000    0.1618653100000000    0.4272385900000000 O
   0.0810869500000000    0.8381346900000001    0.5727614100000000 O
   0.0825894500000000    0.3342894100000000    0.0807979100000000 O
   0.9174105500000000    0.6657105900000000    0.9192020900000000 O
   0.8495650500000000    0.4118151100000000    0.5344163500000000 O
   0.1504349500000000    0.5881848900000000    0.4655836500000000 O
   0.1534133800000000    0.0910487400000000    0.9648048100000001 O
   0.8465866200000001    0.9089512600000000    0.0351951900000000 O
   0.2693143100000000    0.8167972200000000    0.3643213400000000 O
   0.7306856900000001    0.1832027800000000    0.6356786600000001 O
   0.2730006600000000    0.3226237900000000    0.8728981100000001 O
   0.7269993400000000    0.6773762100000000    0.1271018900000000 O
   0.8445924900000000    0.1261820900000000    0.1963901300000000 O
   0.1554075100000000    0.8738179100000000    0.8036098700000001 O
   0.1666068000000000    0.3681731300000000    0.3020498300000000 O
   0.8333931999999999    0.6318268700000000    0.6979501700000000 O
   0.7550655200000000    0.3828740600000000    0.2630008500000000 O
   0.2449344800000000    0.6171259400000000    0.7369991500000000 O
   0.2455828200000000    0.1167698500000000    0.2394464500000000 O
   0.7544171800000000    0.8832301500000000    0.7605535500000000 O
   0.4525019700000000    0.0948342400000000    0.6263540500000000 O
   0.5474980300000000    0.9051657600000000    0.3736459500000000 O
   0.4334304300000000    0.5951500200000001    0.1497664700000000 O
   0.5665695700000000    0.4048499800000000    0.8502335300000000 O
   0.5663886100000000    0.6317437400000000    0.4154745999999990 O
   0.4336113900000000    0.3682562600000000    0.5845254000000000 O
   0.4287552300000000    0.8723816300000000    0.0877753500000000 O
   0.5712447700000000    0.1276183700000000    0.9122246500000000 O
   0.5921987100000000    0.1858425800000000    0.3672317800000000 O
   0.4078012900000000    0.8141574200000000    0.6327682200000000 O
   0.4729187500000000    0.3115046100000000    0.0715804900000000 O
   0.5270812500000001    0.6884953900000000    0.9284195100000000 O
