Fe3 Rh1 N1
1.0
   3.8397305500000001    0.0000000000000000    0.0000000000000000
   0.0000000000000000    3.8396309700000000    0.0000000000000000
   0.0000000000000000   -0.0000000000000000    3.8389458899999989
Fe Rh N
3 1 1
direct
   0.0000000000000000    0.5000000000000000    0.5000000000000000 Fe
   0.5000000000000000    0.5000000000000000    0.0000000000000000 Fe
   0.5000000000000000    0.0000000000000000    0.5000000000000000 Fe
   0.0000000000000000    0.0000000000000000   -0.0000000000000000 Rh
   0.5000000000000000    0.5000000000000000    0.5000000000000000 N
