Sr2 Co2 O6
1.0
   3.9383422599999989   -0.0000007200000000   -0.0000013100000000
   0.0000009700000000    3.7868688500000003    3.7861207200000000
  -0.0000007800000000   -3.7869505999999999    3.7860549699999999
Sr Co O
2 2 6
direct
   0.5000000000000000    0.5000000000000000   -0.0000000000000000 Sr
   0.5000000000000000   -0.0000000000000000    0.5000000000000000 Sr
  -0.0000000000000000    0.4999989999999990    0.5000010000000000 Co
  -0.0000000000000000   -0.0000000000000000   -0.0000000000000000 Co
  -0.0000002300000000    0.2650132400000000    0.2650227600000000 O
   0.0000002300000000    0.7349867600000000    0.7349782400000000 O
  -0.0000000100000000    0.2348271600000000    0.7651823300000000 O
   0.0000000100000000    0.7651728400000000    0.2348166700000000 O
   0.5000000000000000   -0.0000000000000000   -0.0000000000000000 O
   0.5000000000000000    0.5000000000000000    0.4999989999999990 O
