Ce2 As2 O6
1.0
   5.3293520000000001    0.0000000000000000    0.0000000000000000
   0.0000000000000000    4.4095370000000003    0.0000000000000000
   0.0000000000000000    1.6349770000000001    5.9659620000000002
Ce As O
2 2 6
direct
   0.7500000000000000    0.6630469999999991    0.7020100000000000 Ce
   0.2500000000000000    0.3369530000000000    0.2979900000000000 Ce
   0.7500000000000000    0.9205519999999990    0.1414170000000000 As
   0.2500000000000000    0.0794479999999990    0.8585830000000000 As
   0.7500000000000000    0.3363150000000000    0.1154950000000000 O
   0.2500000000000000    0.6636850000000000    0.8845050000000000 O
   0.5009030000000000    0.8051640000000000    0.3445470000000000 O
   0.0009029999999990    0.1948359999999990    0.6554530000000000 O
   0.4990969999999990    0.1948359999999990    0.6554530000000000 O
   0.9990969999999991    0.8051640000000000    0.3445470000000000 O
