Cd2 C2 Br6 N2
1.0
   3.8460969999999999   -6.6490229999999997    0.0000000000000000
   3.8460969999999999    6.6490229999999997    0.0000000000000000
   0.0000000000000000    0.0000000000000000    6.8507629999999997
Cd C Br N
2 2 6 2
direct
   0.0002860000000000    0.9997140000000000    0.3188850000000000 Cd
   0.9997140000000000    0.0002860000000000    0.8188850000000000 Cd
   0.6632509999999990    0.3367489999999990    0.6420370000000000 C
   0.3367489999999990    0.6632509999999990    0.1420370000000000 C
   0.3346360000000000    0.1677380000000000    0.0660320000000000 Br
   0.8322619999999999    0.6653640000000000    0.0660320000000000 Br
   0.6653640000000000    0.8322619999999999    0.5660320000000000 Br
   0.1677380000000000    0.3346360000000000    0.5660320000000000 Br
   0.1670029999999990    0.8329970000000000    0.5675009999999990 Br
   0.8329970000000000    0.1670029999999990    0.0675009999999990 Br
   0.6743439999999991    0.3256560000000000    0.4712119999999990 N
   0.3256560000000000    0.6743439999999991    0.9712120000000000 N
