Rb1 Pd1 Br3
1.0
  -5.2962009999999999   -0.0004060000000000    0.0019149999999990
  -0.0008990000000000   -0.0002200000000000   -5.2922320000000003
  -0.0015110000000000   -5.2890750000000004    0.0041860000000000
Rb Pd Br
1 1 3
direct
   0.0006979999999990    0.0010170000000000    0.9936670000000000 Rb
   0.4994010000000000    0.4958909999999990    0.4849190000000000 Pd
   0.9993740000000000    0.4960239999999990    0.4872990000000000 Br
   0.5019589999999990    0.5010460000000000    0.9853310000000000 Br
   0.4985679999999990    0.9960200000000001    0.4887809999999990 Br
