K1 Tl1 O3
1.0
   4.4106470000000000    0.0000000000000000    0.0000000000000000
   0.0000000000000000    4.4106470000000000    0.0000000000000000
   0.0000000000000000    0.0000000000000000    4.4106470000000000
K Tl O
1 1 3
direct
   0.0000000000000000    0.0000000000000000    0.0000000000000000 K
   0.5000000000000000    0.5000000000000000    0.5000000000000000 Tl
   0.5000000000000000    0.5000000000000000    0.0000000000000000 O
   0.5000000000000000    0.0000000000000000    0.5000000000000000 O
   0.0000000000000000    0.5000000000000000    0.5000000000000000 O
