Dy3 Sn1 C1
1.0
   4.8706997899999998   -0.0000000000000000   -0.0000000000000000
  -0.0000000000000000    4.8706997899999998   -0.0000000000000000
   0.0000000000000000   -0.0000000000000000    4.8706997899999998
Dy Sn C
3 1 1
direct
   0.5000000000000000    0.0000000000000000    0.5000000000000000 Dy
   0.5000000000000000    0.5000000000000000    0.0000000000000000 Dy
   0.0000000000000000    0.5000000000000000    0.5000000000000000 Dy
  -0.0000000000000000   -0.0000000000000000   -0.0000000000000000 Sn
   0.5000000000000000    0.5000000000000000    0.5000000000000000 C
