Mn8 S8 O24
1.0
  12.4410679999999996    0.0000000000000000    0.0000000000000000
   0.0000000000000000    5.4963059999999997    0.0000000000000000
   0.0000000000000000    1.5089410000000001    8.2902129999999996
Mn S O
8 8 24
direct
   0.9204340000000000    0.6672540000000000    0.6167290000000000 Mn
   0.4204340000000000    0.3327460000000000    0.8832709999999990 Mn
   0.0795660000000000    0.3327460000000000    0.3832710000000000 Mn
   0.5795660000000000    0.6672540000000000    0.1167290000000000 Mn
   0.2459600000000000    0.8842909999999991    0.1582230000000000 Mn
   0.7459600000000001    0.1157089999999990    0.3417770000000000 Mn
   0.7540400000000000    0.1157089999999990    0.8417770000000000 Mn
   0.2540400000000000    0.8842909999999991    0.6582230000000000 Mn
   0.6757730000000000    0.5209800000000000    0.5092690000000000 S
   0.1757729999999990    0.4790200000000001    0.9907309999999990 S
   0.3242270000000000    0.4790200000000001    0.4907310000000000 S
   0.8242269999999990    0.5209800000000000    0.0092690000000000 S
   0.5185759999999990    0.9135240000000000    0.7453830000000000 S
   0.0185760000000000    0.0864760000000000    0.7546170000000000 S
   0.4814239999999990    0.0864760000000000    0.2546170000000000 S
   0.9814240000000000    0.9135240000000000    0.2453830000000000 S
   0.2607840000000000    0.2663450000000000    0.0040149999999990 O
   0.7607840000000000    0.7336549999999999    0.4959849999999991 O
   0.7392160000000000    0.7336549999999999    0.9959850000000000 O
   0.2392159999999990    0.2663450000000000    0.5040150000000000 O
   0.9845929999999991    0.6705050000000000    0.3715850000000000 O
   0.4845930000000000    0.3294950000000000    0.1284150000000000 O
   0.0154069999999990    0.3294950000000000    0.6284149999999999 O
   0.5154069999999999    0.6705050000000000    0.8715849999999991 O
   0.9211849999999990    0.0953109999999990    0.3373009999999990 O
   0.4211850000000000    0.9046890000000000    0.1626989999999990 O
   0.0788150000000000    0.9046890000000000    0.6626989999999990 O
   0.5788150000000000    0.0953109999999990    0.8373010000000000 O
   0.7597060000000000    0.2813620000000000    0.0762009999999990 O
   0.2597060000000000    0.7186380000000000    0.4237990000000000 O
   0.2402939999999990    0.7186380000000000    0.9237989999999990 O
   0.7402940000000000    0.2813620000000000    0.5762010000000000 O
   0.9035510000000000    0.9741879999999991    0.7561340000000000 O
   0.4035510000000000    0.0258119999999990    0.7438659999999990 O
   0.0964490000000000    0.0258119999999990    0.2438660000000000 O
   0.5964490000000000    0.9741879999999991    0.2561340000000000 O
   0.8404170000000000    0.4739669999999990    0.8339789999999990 O
   0.3404169999999990    0.5260330000000000    0.6660210000000000 O
   0.1595830000000000    0.5260330000000000    0.1660210000000000 O
   0.6595829999999990    0.4739669999999990    0.3339789999999990 O
