Ba2 Cl2 O6
1.0
   4.6180909999999997    0.0000000000000000    0.0000000000000000
   0.2229570000000000    4.9187630000000002    0.0000000000000000
   0.5375380000000000    1.7929430000000000    8.9683869999999999
Ba Cl O
2 2 6
direct
   0.7515550000000000    0.8227880000000000    0.2860439999999990 Ba
   0.2204390000000000    0.3109900000000000    0.7840189999999990 Ba
   0.3575419999999990    0.3714949999999990    0.1133550000000000 Cl
   0.7441570000000000    0.8384720000000000    0.9156980000000000 Cl
   0.2519929999999990    0.8224650000000000    0.4884980000000000 O
   0.7227760000000000    0.2727560000000000    0.4143880000000000 O
   0.7299319999999990    0.2030529999999990    0.5671970000000000 O
   0.2428110000000000    0.8656849999999990    0.6242300000000001 O
   0.2444180000000000    0.0494690000000000    0.1755120000000000 O
   0.7343750000000000    0.4428249999999990    0.6310600000000001 O
