La2 V2 Ge6
1.0
   3.1303082700000000   -5.4218532399999999   -0.0000000000000000
   3.1303082700000000    5.4218532399999999    0.0000000000000000
  -0.0000000000000000    0.0000000000000000    5.6779128700000001
La V Ge
2 2 6
direct
   0.3333330000000000    0.6666670000000000    0.7500000000000000 La
   0.6666670000000000    0.3333330000000000    0.2500000000000000 La
  -0.0000000000000000   -0.0000000000000000    0.5000000000000000 V
  -0.0000000000000000   -0.0000000000000000    0.0000000000000000 V
   0.1942782600000000    0.8057217400000000    0.2500000000000000 Ge
   0.1942782600000000    0.3885575300000000    0.2500000000000000 Ge
   0.6114424700000000    0.8057217400000000    0.2500000000000000 Ge
   0.8057217400000000    0.1942782600000000    0.7500000000000000 Ge
   0.8057217400000000    0.6114424700000000    0.7500000000000000 Ge
   0.3885575300000000    0.1942782600000000    0.7500000000000000 Ge
