Eu4 B4 O12
1.0
   6.2820019800000004   -0.0454789700000000   -0.0445457100000000
  -1.8482729600000001    6.2365104999999996    0.0082396200000000
  -1.9142872600000000   -0.9125490600000000    6.1364364299999998
Eu B O
4 4 12
direct
   0.4430572200000000    0.8146142400000000    0.2231550300000000 Eu
   0.5569427800000000    0.1853857600000000    0.7768449700000000 Eu
   0.0450839200000000    0.2658435800000000    0.3367733600000000 Eu
   0.9549160800000001    0.7341564200000000    0.6632266400000000 Eu
   0.4893907700000000    0.2774053700000000    0.2653319300000000 B
   0.5106092300000000    0.7225946300000000    0.7346680700000000 B
   0.9795931600000001    0.7595332200000000    0.2205582999999990 B
   0.0204068400000000    0.2404667800000000    0.7794417000000000 B
   0.3786172100000000    0.7973510600000000    0.8381606100000000 O
   0.6213827900000000    0.2026489400000000    0.1618393900000000 O
   0.0341831300000000    0.7754141200000000    0.0339199400000000 O
   0.9658168700000000    0.2245858800000000    0.9660800600000000 O
   0.6215321600000000    0.8674426200000001    0.6178637500000000 O
   0.3784678400000000    0.1325573800000000    0.3821362500000000 O
   0.9106204800000001    0.3558399500000000    0.6315783700000001 O
   0.0893795200000000    0.6441600500000000    0.3684216300000000 O
   0.5501548200000000    0.5299197200000000    0.7460868800000000 O
   0.4498451800000000    0.4700802800000000    0.2539131200000000 O
   0.1493061500000000    0.1292191800000000    0.7116945500000000 O
   0.8506938500000000    0.8707808200000000    0.2883054500000000 O
