La1 Ga3 Pt1
1.0
  -2.1536875499999999    2.1536875499999999    5.2846123000000000
   2.1536875499999999   -2.1536875499999999    5.2846123000000000
   2.1536875499999999    2.1536875499999999   -5.2846123000000000
La Ga Pt
1 3 1
direct
  -0.0000000000000000   -0.0000000000000000   -0.0000000000000000 La
   0.6191821500000000    0.6191821500000000    0.0000000000000000 Ga
   0.3808178500000000    0.3808178500000000   -0.0000000000000000 Ga
   0.7500000000000000    0.2500000000000000    0.5000000000000000 Ga
   0.2500000000000000    0.7500000000000000    0.5000000000000000 Pt
