Hf4 Fe4 O12
1.0
   5.0379459999999998    0.0000000000000000    0.0000000000000000
   0.0000000000000000    5.3304039999999997    0.0000000000000000
   0.0000000000000000    0.0000000000000000    8.7772000000000006
Hf Fe O
4 4 12
direct
   0.0445280000000000    0.4295650000000000    0.2500000000000000 Hf
   0.4554720000000000    0.9295650000000000    0.2500000000000000 Hf
   0.5445280000000000    0.0704350000000000    0.7500000000000000 Hf
   0.9554720000000000    0.5704350000000000    0.7500000000000000 Hf
   0.0000000000000000    0.0000000000000000    0.5000000000000000 Fe
   0.0000000000000000    0.0000000000000000    0.0000000000000000 Fe
   0.5000000000000000    0.5000000000000000    0.5000000000000000 Fe
   0.5000000000000000    0.5000000000000000    0.0000000000000000 Fe
   0.1777760000000000    0.9057800000000000    0.7500000000000000 O
   0.1948959999999990    0.7007749999999990    0.1007690000000000 O
   0.1948959999999990    0.7007749999999990    0.3992310000000000 O
   0.3051040000000000    0.2007749999999990    0.1007690000000000 O
   0.3051040000000000    0.2007749999999990    0.3992310000000000 O
   0.3222240000000000    0.4057800000000000    0.7500000000000000 O
   0.6777759999999990    0.5942200000000001    0.2500000000000000 O
   0.6948960000000000    0.7992250000000000    0.6007690000000000 O
   0.6948960000000000    0.7992250000000000    0.8992310000000000 O
   0.8051039999999990    0.2992249999999990    0.6007690000000000 O
   0.8051039999999990    0.2992249999999990    0.8992310000000000 O
   0.8222240000000000    0.0942200000000000    0.2500000000000000 O
