K2 Zr2 Cu2 S6
1.0
   1.8766940400000001   -7.0545462099999998    0.0000000000000000
   1.8766940400000001    7.0545462099999998   -0.0000000000000000
   0.0000000000000000   -0.0000000000000000    9.8071079399999999
K Zr Cu S
2 2 2 6
direct
   0.7450296900000000    0.2549703100000000    0.2500000000000000 K
   0.2549703100000000    0.7450296900000000    0.7500000000000000 K
   0.0000000000000000   -0.0000000000000000   -0.0000000000000000 Zr
   0.0000000000000000   -0.0000000000000000    0.5000000000000000 Zr
   0.4665141500000000    0.5334858500000000    0.2500000000000000 Cu
   0.5334858500000000    0.4665141500000000    0.7500000000000000 Cu
   0.0635790700000000    0.9364209300000000    0.2500000000000000 S
   0.9364209300000000    0.0635790700000000    0.7500000000000000 S
   0.6208574800000000    0.3791425200000000    0.5549302400000000 S
   0.6208574800000000    0.3791425200000000    0.9450697600000000 S
   0.3791425200000000    0.6208574800000000    0.0549302400000000 S
   0.3791425200000000    0.6208574800000000    0.4450697600000000 S
