Pr4 Fe4 O12
1.0
   5.4987869700000003   -0.0000000000000000    0.0000000000000000
  -0.0000000000000000    5.6356306800000002    0.0000000000000000
   0.0000000000000000    0.0000000000000000    7.8238989500000002
Pr Fe O
4 4 12
direct
   0.0115689600000000    0.9493809900000000    0.7500000000000000 Pr
   0.5115689600000000    0.5506190100000000    0.2500000000000000 Pr
   0.4884310400000000    0.4493809900000000    0.7500000000000000 Pr
   0.9884310400000000    0.0506190100000000    0.2500000000000000 Pr
  -0.0000000000000000    0.5000000000000000    0.5000000000000000 Fe
   0.5000000000000000    0.0000000000000000    0.5000000000000000 Fe
   0.5000000000000000    0.0000000000000000    0.0000000000000000 Fe
  -0.0000000000000000    0.5000000000000000    0.0000000000000000 Fe
   0.7067842900000000    0.2934148200000000    0.4542040100000000 O
   0.2067842900000000    0.2065851800000000    0.5457959900000000 O
   0.7932157100000000    0.7934148200000000    0.0457959900000000 O
   0.2932157100000000    0.7065851800000000    0.9542040100000000 O
   0.2932157100000000    0.7065851800000000    0.5457959900000000 O
   0.7932157100000000    0.7934148200000000    0.4542040100000000 O
   0.2067842900000000    0.2065851800000000    0.9542040100000000 O
   0.7067842900000000    0.2934148200000000    0.0457959900000000 O
   0.0858155500000000    0.4781542400000000    0.2500000000000000 O
   0.5858155500000000    0.0218457600000000    0.7500000000000000 O
   0.4141844500000000    0.9781542400000001    0.2500000000000000 O
   0.9141844500000000    0.5218457600000000    0.7500000000000000 O
