Cu1 N1 F3
1.0
   3.8877549999999998    0.0000000000000000    0.0000000000000000
   0.0000000000000000    3.8877549999999998    0.0000000000000000
   0.0000000000000000    0.0000000000000000    3.8877549999999998
Cu N F
1 1 3
direct
   0.0000000000000000    0.0000000000000000    0.0000000000000000 Cu
   0.5000000000000000    0.5000000000000000    0.5000000000000000 N
   0.0000000000000000    0.0000000000000000    0.5000000000000000 F
   0.5000000000000000    0.0000000000000000    0.0000000000000000 F
   0.0000000000000000    0.5000000000000000    0.0000000000000000 F
