Sr4 Tc4 N12
1.0
  -3.1427195399999999    5.0766634799999997   -1.1904279700000000
   0.0237995300000000   -0.0267407400000000   -7.5252405099999997
  -5.5400971400000003   -5.0846363400000003    0.2904019800000000
Sr Tc N
4 4 12
direct
   0.7500000000000000    0.3277310900000000    0.3277310900000000 Sr
   0.2500000000000000    0.0928591200000000    0.0928591200000000 Sr
   0.2500000000000000    0.6722689100000000    0.6722689100000000 Sr
   0.7500000000000000    0.9071408800000000    0.9071408800000000 Sr
   0.7439614300000000    0.7989681100000000    0.3758087500000000 Tc
   0.7560385700000000    0.3758087500000000    0.7989681100000000 Tc
   0.2439614300000000    0.6241912500000000    0.2010318900000000 Tc
   0.2560385700000000    0.2010318900000000    0.6241912500000000 Tc
   0.0049359800000000    0.3689547200000000    0.6777785700000000 N
   0.6677624999999990    0.9859194500000000    0.2338367300000000 N
   0.3322374999999990    0.0140805500000000    0.7661632700000001 N
   0.6669567700000000    0.5914166100000000    0.8674407700000000 N
   0.8322375000000000    0.2338367300000000    0.9859194500000000 N
   0.5049359800000001    0.3222214300000000    0.6310452800000000 N
   0.1677624999999990    0.7661632700000001    0.0140805500000000 N
   0.9950640200000000    0.6310452800000000    0.3222214300000000 N
   0.4950640200000000    0.6777785700000000    0.3689547200000000 N
   0.8330432300000000    0.8674407700000000    0.5914166100000000 N
   0.3330432300000000    0.4085833900000000    0.1325592300000000 N
   0.1669567700000000    0.1325592300000000    0.4085833900000000 N
