La4 Re4 N12
1.0
   5.3746539999999996    0.0000000000000000    0.0000000000000000
   0.0000000000000000    7.0631510000000004    0.0000000000000000
   0.0000000000000000    5.7774120000000000    9.6867809999999999
La Re N
4 4 12
direct
   0.7084050000000000    0.7785310000000000    0.8332900000000001 La
   0.2915950000000000    0.2214690000000000    0.1667100000000000 La
   0.7915949999999990    0.7785310000000000    0.3332900000000000 La
   0.2084049999999990    0.2214690000000000    0.6667100000000000 La
   0.7202189999999991    0.0952389999999990    0.9919049999999990 Re
   0.7797809999999999    0.0952389999999990    0.4919050000000000 Re
   0.2202190000000000    0.9047609999999990    0.5080950000000000 Re
   0.2797810000000000    0.9047609999999990    0.0080950000000000 Re
   0.3062330000000000    0.6373179999999991    0.0346970000000000 N
   0.5204860000000000    0.0322330000000000    0.3817760000000000 N
   0.8062330000000000    0.3626820000000000    0.4653029999999990 N
   0.5020040000000000    0.0879890000000000    0.8485500000000000 N
   0.1937670000000000    0.6373179999999991    0.5346970000000000 N
   0.4979960000000000    0.9120109999999990    0.1514500000000000 N
   0.0020039999999990    0.9120109999999990    0.6514500000000001 N
   0.4795140000000000    0.9677669999999990    0.6182240000000000 N
   0.9979960000000000    0.0879890000000000    0.3485500000000000 N
   0.6937670000000000    0.3626820000000000    0.9653029999999990 N
   0.9795140000000000    0.0322330000000000    0.8817760000000000 N
   0.0204860000000000    0.9677669999999990    0.1182240000000000 N
