Li4 Be4 H12
1.0
   4.0038609999999997    4.3493899999999996    0.0000000000000000
  -4.0038609999999997    4.3493899999999996    0.0000000000000000
   0.0000000000000000    1.5409260000000000    4.4320480000000000
Li Be H
4 4 12
direct
   0.0993349999999990    0.9006649999999990    0.2500000000000000 Li
   0.2909549999999990    0.7090449999999990    0.7500000000000000 Li
   0.7090449999999990    0.2909549999999990    0.2500000000000000 Li
   0.9006649999999990    0.0993349999999990    0.7500000000000000 Li
   0.6271320000000000    0.8017949999999990    0.2608070000000000 Be
   0.8017949999999990    0.6271320000000000    0.7608070000000000 Be
   0.1982050000000000    0.3728680000000000    0.2391930000000000 Be
   0.3728680000000000    0.1982050000000000    0.7391930000000000 Be
   0.7918520000000000    0.9799580000000000    0.1607319999999990 H
   0.3943549999999990    0.8836700000000001    0.3415970000000000 H
   0.9799580000000000    0.7918520000000000    0.6607320000000000 H
   0.6318859999999999    0.6560840000000000    0.0413210000000000 H
   0.6560840000000000    0.6318859999999999    0.5413209999999991 H
   0.1163300000000000    0.6056450000000000    0.1584030000000000 H
   0.8836700000000001    0.3943549999999990    0.8415969999999990 H
   0.3439160000000000    0.3681140000000000    0.4586790000000000 H
   0.3681140000000000    0.3439160000000000    0.9586789999999999 H
   0.0200420000000000    0.2081480000000000    0.3392679999999990 H
   0.6056450000000000    0.1163300000000000    0.6584030000000000 H
   0.2081480000000000    0.0200420000000000    0.8392680000000000 H
