Ba2 Gd2 Au2 Se6
1.0
   2.1401520000000001   -7.1815230000000003    0.0000000000000000
   2.1401520000000001    7.1815230000000003    0.0000000000000000
   0.0000000000000000    0.0000000000000000   10.8450679999999995
Ba Gd Au Se
2 2 2 6
direct
   0.7521749999999990    0.2478250000000000    0.2500000000000000 Ba
   0.2478250000000000    0.7521749999999990    0.7500000000000000 Ba
   0.0000000000000000    0.0000000000000000    0.5000000000000000 Gd
   0.0000000000000000    0.0000000000000000    0.0000000000000000 Gd
   0.5352580000000000    0.4647420000000000    0.7500000000000000 Au
   0.4647420000000000    0.5352580000000000    0.2500000000000000 Au
   0.0789450000000000    0.9210550000000000    0.2500000000000000 Se
   0.9210550000000000    0.0789450000000000    0.7500000000000000 Se
   0.6379300000000000    0.3620700000000000    0.5509029999999990 Se
   0.6379300000000000    0.3620700000000000    0.9490970000000000 Se
   0.3620700000000000    0.6379300000000000    0.0509030000000000 Se
   0.3620700000000000    0.6379300000000000    0.4490969999999990 Se
