Ta4 Mo4 N12
1.0
   8.5809139999999999   -0.4302189999999990    0.4704950000000000
  -2.4198900000000001    4.8178320000000001   -0.8802500000000001
  -1.1584880000000000   -3.7902939999999998    7.0885910000000001
Ta Mo N
4 4 12
direct
   0.1916650000000000    0.0836580000000000    0.9986790000000000 Ta
   0.8083349999999990    0.9163420000000000    0.0013210000000000 Ta
   0.9160649999999990    0.7306140000000000    0.5514470000000000 Ta
   0.0839350000000000    0.2693860000000000    0.4485530000000000 Ta
   0.3344050000000000    0.6808210000000000    0.8924390000000000 Mo
   0.6655949999999990    0.3191790000000000    0.1075609999999990 Mo
   0.5349110000000000    0.7956270000000000    0.3636570000000000 Mo
   0.4650890000000000    0.2043730000000000    0.6363430000000000 Mo
   0.8012520000000000    0.8593170000000000    0.4148929999999990 N
   0.1987479999999990    0.1406830000000000    0.5851069999999990 N
   0.8755930000000000    0.3315980000000000    0.2738009999999990 N
   0.1244069999999990    0.6684019999999991    0.7261989999999990 N
   0.6560460000000000    0.3073869999999990    0.5162220000000000 N
   0.3439540000000000    0.6926129999999990    0.4837780000000000 N
   0.5590079999999999    0.7963880000000000    0.8335920000000000 N
   0.4409920000000000    0.2036120000000000    0.1664080000000000 N
   0.0414210000000000    0.9594940000000000    0.1495890000000000 N
   0.9585790000000000    0.0405060000000000    0.8504109999999990 N
   0.6332770000000000    0.3984860000000000    0.9007790000000000 N
   0.3667229999999990    0.6015140000000000    0.0992209999999990 N
