Ba1 Ge1 Au3
1.0
  -2.4004900800000000    2.4004900800000000    5.1135794499999996
   2.4004900800000000   -2.4004900800000000    5.1135794499999996
   2.4004900800000000    2.4004900800000000   -5.1135794499999996
Ba Ge Au
1 1 3
direct
   0.0054125700000000    0.0054125700000000    0.0000000000000000 Ba
   0.3579458900000000    0.3579458900000000    0.0000000000000000 Ge
   0.7642480600000000    0.2642480600000000    0.5000000000000000 Au
   0.2642480600000000    0.7642480600000000    0.5000000000000000 Au
   0.6081464300000000    0.6081464300000000   -0.0000000000000000 Au
