Li3 Cu3 B3 O9
1.0
   4.0476650000000003   -7.0107609999999996    0.0000000000000000
   4.0476650000000003    7.0107609999999996    0.0000000000000000
   0.0000000000000000    0.0000000000000000    3.0502769999999999
Li Cu B O
3 3 3 9
direct
   0.6128779999999990    0.6480659999999990    0.5000000000000000 Li
   0.3519339999999990    0.9648120000000000    0.5000000000000000 Li
   0.0351880000000000    0.3871219999999990    0.5000000000000000 Li
   0.7137740000000000    0.0337130000000000    0.0000000000000000 Cu
   0.9662870000000000    0.6800609999999990    0.0000000000000000 Cu
   0.3199390000000000    0.2862260000000000    0.0000000000000000 Cu
   0.6666670000000000    0.3333330000000000    0.5000000000000000 B
   0.3333330000000000    0.6666670000000000    0.0000000000000000 B
   0.0000000000000000    0.0000000000000000    0.5000000000000000 B
   0.4444400000000001    0.5810980000000000    0.0000000000000000 O
   0.4703330000000000    0.2507340000000000    0.5000000000000000 O
   0.4189020000000000    0.8633419999999991    0.0000000000000000 O
   0.7804010000000000    0.5296670000000000    0.5000000000000000 O
   0.7492660000000000    0.2195990000000000    0.5000000000000000 O
   0.8031280000000000    0.9220229999999990    0.5000000000000000 O
   0.1366580000000000    0.5555600000000001    0.0000000000000000 O
   0.1188950000000000    0.1968720000000000    0.5000000000000000 O
   0.0779769999999990    0.8811049999999990    0.5000000000000000 O
