Tm3 Ga1 C1
1.0
   5.2254630000000004    0.0000000000000000    0.0000000000000000
   0.0000000000000000    5.2254630000000004    0.0000000000000000
   0.0000000000000000    0.0000000000000000    5.2254630000000004
Tm Ga C
3 1 1
direct
   0.0000000000000000    0.5000000000000000    0.5000000000000000 Tm
   0.5000000000000000    0.0000000000000000    0.5000000000000000 Tm
   0.5000000000000000    0.5000000000000000    0.0000000000000000 Tm
   0.5000000000000000    0.5000000000000000    0.5000000000000000 Ga
   0.0000000000000000    0.0000000000000000    0.0000000000000000 C
