Er4 In4 O12
1.0
   5.5212260000000004    0.0000000000000000    0.0000000000000000
   0.0000000000000000    5.8403630000000000    0.0000000000000000
   0.0000000000000000    0.0000000000000000    8.1768040000000006
Er In O
4 4 12
direct
   0.0179159999999990    0.9373200000000000    0.7500000000000000 Er
   0.4820839999999990    0.4373200000000000    0.7500000000000000 Er
   0.5179159999999990    0.5626800000000001    0.2500000000000000 Er
   0.9820840000000000    0.0626800000000000    0.2500000000000000 Er
   0.0000000000000000    0.5000000000000000    0.0000000000000000 In
   0.0000000000000000    0.5000000000000000    0.5000000000000000 In
   0.5000000000000000    0.0000000000000000    0.0000000000000000 In
   0.5000000000000000    0.0000000000000000    0.5000000000000000 In
   0.1481450000000000    0.4233150000000000    0.2500000000000000 O
   0.1797870000000000    0.1834869999999990    0.5751579999999999 O
   0.1797870000000000    0.1834869999999990    0.9248419999999991 O
   0.3202129999999990    0.6834870000000000    0.5751579999999999 O
   0.3202129999999990    0.6834870000000000    0.9248419999999991 O
   0.3518550000000000    0.9233150000000000    0.2500000000000000 O
   0.6481450000000000    0.0766850000000000    0.7500000000000000 O
   0.6797869999999990    0.3165130000000000    0.0751580000000000 O
   0.6797869999999990    0.3165130000000000    0.4248420000000000 O
   0.8202130000000000    0.8165129999999990    0.0751580000000000 O
   0.8202130000000000    0.8165129999999990    0.4248420000000000 O
   0.8518549999999990    0.5766850000000000    0.7500000000000000 O
