Mg4 Sn4 O12
1.0
   5.3316530000000002    0.0000000000000000    0.0000000000000000
   0.0000000000000000    5.4569080000000003    0.0000000000000000
   0.0000000000000000    0.0000000000000000    7.8394539999999999
Mg Sn O
4 4 12
direct
   0.9993869999999990    0.9564440000000000    0.7500000000000000 Mg
   0.5006130000000000    0.4564439999999990    0.7500000000000000 Mg
   0.4993869999999990    0.5435559999999990    0.2500000000000000 Mg
   0.0006129999999990    0.0435560000000000    0.2500000000000000 Mg
   0.0000000000000000    0.5000000000000000    0.0000000000000000 Sn
   0.0000000000000000    0.5000000000000000    0.5000000000000000 Sn
   0.5000000000000000    0.0000000000000000    0.5000000000000000 Sn
   0.5000000000000000    0.0000000000000000    0.0000000000000000 Sn
   0.1355670000000000    0.4130109999999990    0.2500000000000000 O
   0.1713080000000000    0.1764040000000000    0.5719409999999990 O
   0.1713080000000000    0.1764040000000000    0.9280590000000000 O
   0.3286920000000000    0.6764040000000000    0.5719409999999990 O
   0.3286920000000000    0.6764040000000000    0.9280590000000000 O
   0.3644330000000000    0.9130109999999990    0.2500000000000000 O
   0.6355670000000000    0.0869890000000000    0.7500000000000000 O
   0.6713080000000000    0.3235960000000000    0.0719409999999990 O
   0.6713080000000000    0.3235960000000000    0.4280589999999990 O
   0.8286920000000000    0.8235960000000000    0.0719409999999990 O
   0.8286920000000000    0.8235960000000000    0.4280589999999990 O
   0.8644330000000000    0.5869890000000000    0.7500000000000000 O
