K4 N4 O12
1.0
   5.3239847400000002    0.0000000000000000    0.0000000000000000
   0.0000000000000000    4.4971267099999999   -0.0774218700000000
   0.0000000000000000    4.0699018899999997   13.0982089800000008
K N O
4 4 12
direct
   0.8539862100000000    0.5938796000000000    0.6230219100000001 K
   0.3539862100000000    0.4061204000000000    0.8769780900000000 K
   0.1460137900000000    0.4061204000000000    0.3769780900000000 K
   0.6460137900000000    0.5938796000000000    0.1230219100000000 K
   0.3597422900000000    0.0049272700000000    0.6170687500000001 N
   0.8597422900000000    0.9950727300000001    0.8829312500000001 N
   0.6402577100000000    0.9950727300000001    0.3829312500000000 N
   0.1402577100000000    0.0049272700000000    0.1170687500000000 N
   0.1534320900000000    0.1361379900000000    0.5863382400000000 O
   0.6534320900000000    0.8638620100000001    0.9136617600000000 O
   0.8465679100000000    0.8638620100000001    0.4136617600000000 O
   0.3465679100000000    0.1361379900000000    0.0863382400000000 O
   0.5641410500000000    0.1363759200000000    0.5865868000000000 O
   0.0641410500000000    0.8636240800000000    0.9134131999999990 O
   0.4358589500000000    0.8636240800000000    0.4134132000000000 O
   0.9358589500000000    0.1363759200000000    0.0865867999999990 O
   0.8585668700000000    0.2646550100000000    0.8220067100000000 O
   0.3585668700000000    0.7353449900000000    0.6779932900000000 O
   0.1414331300000000    0.7353449900000000    0.1779932900000000 O
   0.6414331300000000    0.2646550100000000    0.3220067100000000 O
