Tb3 Al1 C1
1.0
   5.3741070000000004    0.0000000000000000    0.0000000000000000
   0.0000000000000000    5.3741070000000004    0.0000000000000000
   0.0000000000000000    0.0000000000000000    5.3741070000000004
Tb Al C
3 1 1
direct
   0.0000000000000000    0.5000000000000000    0.5000000000000000 Tb
   0.5000000000000000    0.5000000000000000    0.0000000000000000 Tb
   0.5000000000000000    0.0000000000000000    0.5000000000000000 Tb
   0.5000000000000000    0.5000000000000000    0.5000000000000000 Al
   0.0000000000000000    0.0000000000000000    0.0000000000000000 C
