Cu3 Ru1 N1
1.0
   3.8709650000000000    0.0000000000000000    0.0000000000000000
   0.0000000000000000    3.8709650000000000    0.0000000000000000
   0.0000000000000000    0.0000000000000000    3.8709650000000000
Cu Ru N
3 1 1
direct
   0.5000000000000000    0.0000000000000000    0.0000000000000000 Cu
   0.0000000000000000    0.5000000000000000    0.0000000000000000 Cu
   0.0000000000000000    0.0000000000000000    0.5000000000000000 Cu
   0.5000000000000000    0.5000000000000000    0.5000000000000000 Ru
   0.0000000000000000    0.0000000000000000    0.0000000000000000 N
