Ge2 H6 Cl2
1.0
   4.5862580499999996   -0.0233290000000000   -0.0000000000000000
  -1.1509958199999999    4.4395415700000003    0.0000000000000000
   0.0000000000000000   -0.0000000000000000    8.3573628600000003
Ge H Cl
2 6 2
direct
   0.5585403300000000    0.5585403300000000    0.9514103900000001 Ge
   0.4414596700000000    0.4414596700000000    0.4514103900000000 Ge
   0.2096094400000000    0.5596865200000000    0.5421152700000000 H
   0.7903905600000000    0.4403134800000000    0.0421152700000000 H
   0.4403134800000000    0.7903905600000000    0.0421152700000000 H
   0.5596865200000000    0.2096094400000000    0.5421152700000000 H
   0.6829784400000000    0.6829784400000000    0.3694042200000000 H
   0.3170215600000000    0.3170215600000000    0.8694042200000001 H
   0.8180017800000000    0.8180017800000000    0.7521208400000000 Cl
   0.1819982200000000    0.1819982200000000    0.2521208400000000 Cl
