V6 H6 O18
1.0
   4.9554210000000003    0.0000000000000000   -0.9500540000000000
   0.0000000000000000    8.7723219999999991    0.0000000000000000
  -0.5870879999999991    0.0000000000000000    7.9767190000000001
V H O
6 6 18
direct
   0.4755820000000000    0.4413419999999990    0.1828229999999990 V
   0.5244179999999991    0.9413420000000000    0.8171769999999990 V
   0.5271239999999990    0.5527710000000000    0.8183100000000001 V
   0.4728759999999990    0.0527710000000000    0.1816900000000000 V
   0.9431000000000000    0.2466620000000000    0.0753259999999990 V
   0.0569000000000000    0.7466619999999990    0.9246740000000000 V
   0.0958180000000000    0.1573840000000000    0.5920310000000000 H
   0.8367760000000000    0.2432190000000000    0.4347680000000000 H
   0.0880560000000000    0.3398350000000000    0.5826720000000000 H
   0.9041819999999990    0.6573840000000000    0.4079689999999990 H
   0.1632239999999990    0.7432190000000000    0.5652320000000000 H
   0.9119440000000000    0.8398350000000000    0.4173280000000000 H
   0.6775930000000000    0.4063290000000000    0.0027519999999990 O
   0.3224070000000000    0.9063289999999991    0.9972479999999990 O
   0.3257740000000000    0.5888490000000000    0.0000180000000000 O
   0.6742260000000000    0.0888490000000000    0.9999819999999990 O
   0.1617019999999990    0.3942190000000000    0.2299930000000000 O
   0.8382980000000000    0.8942190000000000    0.7700070000000000 O
   0.8415220000000000    0.5995730000000000    0.7703320000000000 O
   0.1584779999999990    0.0995730000000000    0.2296679999999990 O
   0.6426040000000000    0.2459559999999990    0.2579380000000000 O
   0.3573960000000000    0.7459560000000000    0.7420620000000000 O
   0.1186789999999990    0.2464660000000000    0.9305749999999990 O
   0.8813209999999990    0.7464660000000000    0.0694250000000000 O
   0.6491300000000001    0.5493340000000000    0.3411050000000000 O
   0.3508700000000000    0.0493339999999990    0.6588950000000000 O
   0.3560419999999990    0.4439740000000000    0.6606909999999990 O
   0.6439579999999990    0.9439740000000000    0.3393089999999990 O
   0.9631130000000000    0.2472760000000000    0.5611400000000001 O
   0.0368869999999990    0.7472759999999991    0.4388600000000000 O
