Li4 Fe4 F12
1.0
   3.9979979999999999    0.0000000000000000    0.0000000000000000
   0.0000000000000000    6.4673140000000000    0.0000000000000000
   0.0000000000000000    0.0000000000000000    9.9131509999999992
Li Fe F
4 4 12
direct
   0.7500000000000000    0.2205470000000000    0.4415489999999990 Li
   0.7500000000000000    0.7205469999999990    0.0584509999999990 Li
   0.2500000000000000    0.2794530000000000    0.9415490000000000 Li
   0.2500000000000000    0.7794530000000000    0.5584509999999990 Li
   0.7500000000000000    0.0746459999999990    0.7580390000000000 Fe
   0.7500000000000000    0.5746460000000000    0.7419610000000000 Fe
   0.2500000000000000    0.4253539999999990    0.2580389999999990 Fe
   0.2500000000000000    0.9253540000000000    0.2419609999999990 Fe
   0.7500000000000000    0.3451059999999990    0.8960610000000000 F
   0.7500000000000000    0.8451059999999990    0.6039390000000000 F
   0.7500000000000000    0.3130910000000000    0.6181890000000000 F
   0.7500000000000000    0.4024669999999990    0.2852659999999990 F
   0.7500000000000000    0.8130910000000000    0.8818110000000000 F
   0.7500000000000000    0.9024669999999990    0.2147339999999990 F
   0.2500000000000000    0.0975330000000000    0.7852660000000000 F
   0.2500000000000000    0.1869090000000000    0.1181889999999990 F
   0.2500000000000000    0.5975330000000000    0.7147340000000000 F
   0.2500000000000000    0.6869090000000000    0.3818109999999990 F
   0.2500000000000000    0.1548940000000000    0.3960610000000000 F
   0.2500000000000000    0.6548940000000000    0.1039389999999990 F
