Tm4 V4 O12
1.0
   5.1908759399999997   -0.0000000000000000    0.0000000000000000
   0.0000000000000000    5.6277395200000004    0.0000000000000000
   0.0000000000000000    0.0000000000000000    7.4865498800000001
Tm V O
4 4 12
direct
   0.0215585700000000    0.9266914900000001    0.2500000000000000 Tm
   0.4784414300000000    0.4266914900000000    0.2500000000000000 Tm
   0.5215585700000001    0.5733085100000000    0.7500000000000000 Tm
   0.9784414300000001    0.0733085100000000    0.7500000000000000 Tm
   0.0000000000000000    0.5000000000000000   -0.0000000000000000 V
   0.0000000000000000    0.5000000000000000    0.5000000000000000 V
   0.5000000000000000    0.0000000000000000   -0.0000000000000000 V
   0.5000000000000000    0.0000000000000000    0.5000000000000000 V
   0.1240971999999990    0.4499399400000000    0.7500000000000000 O
   0.1911360100000000    0.1879094300000000    0.4388644200000000 O
   0.1911360100000000    0.1879094300000000    0.0611355800000000 O
   0.3088639900000000    0.6879094300000000    0.4388644200000000 O
   0.3088639900000000    0.6879094300000000    0.0611355800000000 O
   0.3759028000000000    0.9499399400000000    0.7500000000000000 O
   0.6240972000000000    0.0500600600000000    0.2500000000000000 O
   0.6911360100000000    0.3120905700000000    0.9388644200000000 O
   0.6911360100000000    0.3120905700000000    0.5611355800000000 O
   0.8088639900000000    0.8120905700000001    0.9388644200000000 O
   0.8088639900000000    0.8120905700000001    0.5611355800000000 O
   0.8759028000000000    0.5500600600000000    0.2500000000000000 O
