Mo4 Ru4 N12
1.0
   8.3885810000000003    0.0427279999999990   -0.3394030000000000
  -2.1120329999999998    5.1527139999999996   -0.2360880000000000
  -1.5654749999999999   -2.8272659999999998    7.2090230000000002
Mo Ru N
4 4 12
direct
   0.9797579999999991    0.7072760000000000    0.6474179999999990 Mo
   0.0202420000000000    0.2927240000000000    0.3525820000000000 Mo
   0.6155240000000000    0.9603680000000000    0.1605909999999990 Mo
   0.3844760000000000    0.0396320000000000    0.8394090000000000 Mo
   0.6886000000000000    0.6407039999999991    0.3407600000000000 Ru
   0.3114000000000000    0.3592960000000000    0.6592400000000000 Ru
   0.6989139999999990    0.6746850000000000    0.7827240000000000 Ru
   0.3010859999999990    0.3253149999999990    0.2172760000000000 Ru
   0.7322449999999990    0.7919220000000000    0.5977800000000001 N
   0.2677549999999990    0.2080779999999990    0.4022200000000000 N
   0.8105540000000000    0.3873060000000000    0.3697390000000000 N
   0.1894460000000000    0.6126940000000000    0.6302610000000000 N
   0.9280219999999991    0.6351680000000000    0.8402259999999990 N
   0.0719780000000000    0.3648320000000000    0.1597740000000000 N
   0.5309190000000000    0.8041340000000000    0.8844989999999990 N
   0.4690809999999990    0.1958659999999990    0.1155009999999990 N
   0.8377200000000000    0.8895649999999991    0.2464889999999990 N
   0.1622800000000000    0.1104349999999990    0.7535109999999990 N
   0.5334890000000000    0.2942360000000000    0.7643620000000000 N
   0.4665109999999990    0.7057639999999999    0.2356380000000000 N
