Sm4 Al12 Ni4
1.0
   4.0734531599999997    0.0000000000000000    0.0000000000000000
  -0.0000000000000000    8.1599999899999993    0.0000000000000000
   0.0000000000000000    0.0000000000000000   10.7042367400000007
Sm Al Ni
4 12 4
direct
   0.2500000000000000    0.6848488900000000    0.5107298100000001 Sm
   0.7500000000000000    0.3151511100000000    0.4892701900000000 Sm
   0.7500000000000000    0.8151511100000001    0.0107298100000000 Sm
   0.2500000000000000    0.1848488900000000    0.9892701900000000 Sm
   0.2500000000000000    0.8579931100000000    0.2248483400000000 Al
   0.7500000000000000    0.1420068900000000    0.7751516600000000 Al
   0.7500000000000000    0.6420068900000000    0.7248483400000000 Al
   0.2500000000000000    0.3579931100000000    0.2751516600000000 Al
   0.2500000000000000    0.5534338700000000    0.0823267100000000 Al
   0.7500000000000000    0.4465661300000000    0.9176732900000000 Al
   0.7500000000000000    0.9465661300000000    0.5823267100000000 Al
   0.2500000000000000    0.0534338700000000    0.4176732900000000 Al
   0.2500000000000000    0.8821355200000001    0.7825218500000000 Al
   0.7500000000000000    0.1178644800000000    0.2174781500000000 Al
   0.7500000000000000    0.6178644800000000    0.2825218500000000 Al
   0.2500000000000000    0.3821355200000000    0.7174781500000000 Al
   0.2500000000000000    0.6039071300000000    0.8564185700000000 Ni
   0.7500000000000000    0.3960928700000000    0.1435814300000000 Ni
   0.7500000000000000    0.8960928700000000    0.3564185700000000 Ni
   0.2500000000000000    0.1039071300000000    0.6435814300000000 Ni
