V2 Co2 O6
1.0
  -2.4798650400000000    3.5830641400000003    2.2173906300000001
   2.4747502799999999   -3.5181731599999999    3.0639570200000001
   4.8892560700000001    0.0461561000000000    0.0041241300000000
V Co O
2 2 6
direct
   0.6479736700000001    0.9438918700000000    0.3520443800000000 V
   0.3520244600000000    0.0560985400000000    0.6479603900000001 V
   0.1562351700000000    0.4687197700000000    0.8437574600000001 Co
   0.8437650500000000    0.5312839400000000    0.1562372100000000 Co
   0.4414446600000000    0.2546459300000000    0.2461910000000000 O
   0.5584933900000000    0.7453520200000000    0.7537690700000000 O
   0.9406124200000000    0.7454157200000000    0.4414245600000000 O
   0.0594067900000000    0.2545856700000000    0.5586334800000000 O
   0.7538441000000000    0.2546044400000000    0.9405711200000000 O
   0.2461972900000000    0.7454000900000001    0.0594123300000000 O
