Mg1 Nb1 O1 F3
1.0
   0.0005700000000000    4.0153949999999998    0.0004410000000000
   2.1264979999999989   -2.0065670000000000    4.9234359999999997
   4.2524319999999998    0.0006590000000000    0.0005819999999990
Mg Nb O F
1 1 1 3
direct
   0.2522669999999990    0.5039620000000000    0.2472869999999990 Mg
   0.9931730000000000    0.9857300000000001    0.0067269999999990 Nb
   0.4652090000000000    0.9297869999999990    0.0346120000000000 O
   0.7650730000000000    0.5293530000000000    0.2347179999999990 F
   0.0411720000000000    0.0817130000000000    0.4587200000000000 F
   0.2164380000000000    0.4319550000000000    0.7835620000000000 F
