Ge1 Te1
1.0
   3.2804790000000001   -2.5558619999999999    0.0000000000000000
   3.2804790000000001    2.5558619999999999    0.0000000000000000
   1.2891759999999990    0.0000000000000000    3.9537320000000000
Ge Te
1 1
direct
   0.1574509999999990    0.1574509999999990    0.1574509999999990 Ge
   0.8425490000000000    0.8425490000000000    0.8425490000000000 Te
