Ga2 C2
1.0
   1.6312309999999992   -2.8253749999999993    0.0000000000000000
   1.6312309999999992    2.8253749999999993    0.0000000000000000
   0.0000000000000000    0.0000000000000000    5.6109220000000004
Ga C
2 2
direct
   0.6666670000000000    0.3333330000000000    0.8651260000000000 Ga
   0.3333330000000000    0.6666670000000000    0.3651260000000000 Ga
   0.6666670000000000    0.3333330000000000    0.5092019999999990 C
   0.3333330000000000    0.6666670000000000    0.0092020000000000 C
