Er4 Si4
1.0
  -0.0000041000000000    3.7887385999999998   -0.0000010200000000
   0.0000029000000000   -0.0000010300000000    5.6252722100000003
   7.8024450099999996   -0.0000082000000000    0.0000055300000000
Er Si
4 4
direct
   0.2500000000000000    0.3851274000000000    0.6792790100000000 Er
   0.2500000000000000    0.1148680900000000    0.1791300400000000 Er
   0.7500000000000000    0.6148726000000000    0.3207219900000000 Er
   0.7500009999999990    0.8851319100000000    0.8208679600000001 Er
   0.2500000000000000    0.8700963200000000    0.5384339200000000 Si
   0.2500000000000000    0.6299016900000000    0.0384256000000000 Si
   0.7500000000000000    0.1299036800000000    0.4615680800000000 Si
   0.7500000000000000    0.3700983100000000    0.9615733999999990 Si
