K8 Ge8 Au8 S24
1.0
  11.4987089999999998    0.0000000000000000    0.0000000000000000
   0.0000000000000000   10.7996920000000003    0.0000000000000000
   0.0000000000000000    4.7704779999999998   10.5510319999999993
K Ge Au S
8 8 8 24
direct
   0.7338200000000000    0.6717919999999999    0.7105800000000001 K
   0.7661580000000000    0.0341370000000000    0.8761390000000000 K
   0.2338200000000000    0.8282079999999991    0.7894200000000000 K
   0.2338420000000000    0.9658629999999990    0.1238610000000000 K
   0.2661580000000000    0.4658629999999990    0.6238610000000000 K
   0.7338420000000000    0.5341370000000000    0.3761390000000000 K
   0.2661800000000000    0.3282080000000000    0.2894200000000000 K
   0.7661800000000001    0.1717920000000000    0.2105800000000000 K
   0.0013850000000000    0.5832720000000000    0.0824120000000000 Ge
   0.5036880000000000    0.6072640000000000    0.0574680000000000 Ge
   0.0036880000000000    0.8927360000000000    0.4425320000000000 Ge
   0.4986150000000000    0.0832720000000000    0.5824119999999990 Ge
   0.5013850000000000    0.9167280000000000    0.4175879999999990 Ge
   0.9963120000000000    0.1072640000000000    0.5574680000000000 Ge
   0.4963120000000000    0.3927360000000000    0.9425319999999990 Ge
   0.9986149999999990    0.4167280000000000    0.9175880000000000 Ge
   0.0888289999999990    0.6302019999999990    0.3570379999999990 Au
   0.9187480000000000    0.8347500000000001    0.1804059999999990 Au
   0.4187479999999990    0.6652500000000000    0.3195940000000000 Au
   0.9111710000000000    0.3697979999999990    0.6429619999999990 Au
   0.4111710000000000    0.1302019999999990    0.8570380000000000 Au
   0.0812519999999990    0.1652500000000000    0.8195939999999990 Au
   0.5888289999999990    0.8697980000000000    0.1429620000000000 Au
   0.5812520000000000    0.3347500000000000    0.6804060000000000 Au
   0.9989749999999999    0.8109120000000000    0.0050989999999990 S
   0.4989750000000000    0.6890879999999990    0.4949010000000000 S
   0.8544100000000001    0.4891470000000000    0.0113110000000000 S
   0.3408580000000000    0.6528000000000000    0.1384159999999990 S
   0.9933210000000000    0.5276500000000001    0.7070700000000001 S
   0.5282939999999990    0.3754230000000000    0.1436100000000000 S
   0.6455900000000000    0.9891470000000000    0.5113110000000000 S
   0.0282940000000000    0.1245770000000000    0.3563900000000000 S
   0.6591420000000000    0.3472000000000000    0.8615840000000000 S
   0.1657750000000000    0.7880779999999999    0.4254320000000000 S
   0.8408580000000000    0.8472000000000001    0.3615839999999990 S
   0.5010249999999991    0.3109119999999990    0.5050990000000000 S
   0.3544100000000000    0.0108530000000000    0.4886890000000000 S
   0.0066790000000000    0.4723500000000000    0.2929300000000000 S
   0.4717059999999990    0.6245769999999990    0.8563900000000001 S
   0.4933209999999991    0.9723500000000000    0.7929300000000000 S
   0.1591420000000000    0.1528000000000000    0.6384160000000000 S
   0.9717060000000000    0.8754230000000000    0.6436100000000000 S
   0.1455900000000000    0.5108530000000000    0.9886889999999990 S
   0.3342250000000000    0.2880780000000000    0.9254319999999990 S
   0.5066790000000000    0.0276500000000000    0.2070700000000000 S
   0.0010249999999990    0.1890879999999990    0.9949009999999990 S
   0.6657750000000000    0.7119219999999991    0.0745680000000000 S
   0.8342250000000000    0.2119220000000000    0.5745680000000000 S
