Cs2 Er2 Zn2 Se6
1.0
   4.1603680000000001    0.0000000000000000    0.0000000000000000
  -2.0801840000000000    8.1453640000000007    0.0000000000000000
   0.0000000000000000    0.0000000000000000   10.9472450000000006
Cs Er Zn Se
2 2 2 6
direct
   0.2558769999999990    0.5117539999999990    0.2500000000000000 Cs
   0.7441230000000000    0.4882459999999990    0.7500000000000000 Cs
   0.0000000000000000    0.0000000000000000    0.5000000000000000 Er
   0.0000000000000000    0.0000000000000000    0.0000000000000000 Er
   0.5371070000000000    0.0742140000000000    0.2500000000000000 Zn
   0.4628930000000000    0.9257860000000000    0.7500000000000000 Zn
   0.9443640000000000    0.8887280000000000    0.2500000000000000 Se
   0.0556360000000000    0.1112720000000000    0.7500000000000000 Se
   0.3852700000000001    0.7705400000000001    0.9421109999999990 Se
   0.6147300000000000    0.2294600000000000    0.0578889999999990 Se
   0.6147300000000000    0.2294600000000000    0.4421110000000000 Se
   0.3852700000000001    0.7705400000000001    0.5578890000000000 Se
