Li1 Mg1
1.0
   1.5542443900000000   -2.6920403400000001    0.0000000000000000
   1.5542443900000000    2.6920403400000001   -0.0000000000000000
   0.0000000000000000    0.0000000000000000    5.0254676800000002
Li Mg
1 1
direct
  -0.0000000000000000    0.0000000000000000   -0.0000000000000000 Li
   0.6666670000000000    0.3333330000000000    0.5000000000000000 Mg
