Zn20 S20
1.0
   3.8065641000000001    0.0000000000000000   -0.0000000000000000
  -1.9032815400000000    3.2965809799999999    0.0000000000000000
   0.0000000000000000    0.0000000000000000   62.3171302000000011
Zn S
20 20
direct
   0.0000000000000000   -0.0000000000000000    0.4000149500000000 Zn
   0.3333330000000000    0.6666670000000000    0.4500352100000000 Zn
   0.3333330000000000    0.6666670000000000    0.3500078000000000 Zn
   0.3333330000000000    0.6666670000000000    0.2000158600000000 Zn
   0.6666670000000000    0.3333330000000000    0.8000316700000000 Zn
   0.6666670000000000    0.3333330000000000    0.6500241800000001 Zn
   0.0000000000000000   -0.0000000000000000    0.6000034900000000 Zn
   0.6666670000000000    0.3333330000000000    0.9500246900000000 Zn
   0.6666670000000000    0.3333330000000000    0.1000263500000000 Zn
  -0.0000000000000000   -0.0000000000000000    0.9000047999999991 Zn
   0.3333330000000000    0.6666670000000000    0.5500581300000000 Zn
   0.6666670000000000    0.3333330000000000    0.3000201200000000 Zn
   0.0000000000000000    0.0000000000000000    0.0000504600000000 Zn
   0.3333330000000000    0.6666670000000000    0.0500267400000000 Zn
   0.0000000000000000   -0.0000000000000000    0.1499932000000000 Zn
   0.3333330000000000    0.6666670000000000    0.8500596600000000 Zn
   0.0000000000000000   -0.0000000000000000    0.2500429800000000 Zn
  -0.0000000000000000    0.0000000000000000    0.7000494400000000 Zn
   0.6666670000000000    0.3333330000000000    0.5000333100000001 Zn
   0.3333330000000000    0.6666670000000000    0.7500096900000001 Zn
   0.0000000000000000   -0.0000000000000000    0.6374297900000000 S
   0.3333330000000000    0.6666670000000000    0.8874825000000000 S
   0.6666670000000000    0.3333330000000000    0.8375235900000000 S
   0.0000000000000000   -0.0000000000000000    0.0374798600000000 S
   0.0000000000000000   -0.0000000000000000    0.4375006600000000 S
   0.3333330000000000    0.6666670000000000    0.0874774400000000 S
   0.3333330000000000    0.6666670000000000    0.2375083100000000 S
   0.0000000000000000   -0.0000000000000000    0.7374795600000000 S
   0.0000000000000000   -0.0000000000000000    0.2874700200000000 S
   0.6666670000000000    0.3333330000000000    0.6875225500000001 S
   0.6666670000000000    0.3333330000000000    0.9875194600000000 S
   0.6666670000000000    0.3333330000000000    0.5375157900000000 S
   0.6666670000000000    0.3333330000000000    0.3374667500000000 S
   0.3333330000000000    0.6666670000000000    0.5874782400000000 S
   0.3333330000000000    0.6666670000000000    0.4874377800000000 S
   0.3333330000000000    0.6666670000000000    0.3874247100000000 S
   0.6666670000000000    0.3333330000000000    0.1374671999999990 S
   0.3333330000000000    0.6666670000000000    0.7874388200000000 S
   0.0000000000000000   -0.0000000000000000    0.9374302000000000 S
   0.0000000000000000    0.0000000000000000    0.1874170500000000 S
