Y3 Mg3
1.0
   3.0429729999999999   -5.0543889999999996    0.0000000000000000
   3.0429729999999999    5.0543889999999996    0.0000000000000000
   0.0000000000000000    0.0000000000000000    5.4522870000000001
Y Mg
3 3
direct
   0.6260190000000000    0.6260190000000000    0.0000000000000000 Y
   0.0426820000000000    0.6837980000000000    0.5000000000000000 Y
   0.6837980000000000    0.0426820000000000    0.5000000000000000 Y
   0.9925450000000000    0.3201200000000000    0.0000000000000000 Mg
   0.3201200000000000    0.9925450000000000    0.0000000000000000 Mg
   0.3348359999999990    0.3348359999999990    0.5000000000000000 Mg
