Na8 P8
1.0
   5.5824618800000003    0.0000000000000000    0.0000000000000000
   0.0000000000000000    6.0007586000000002    0.0000000000000000
   0.0000000000000000    0.0000000000000000   10.0537157100000005
Na P
8 8
direct
   0.0957413800000000    0.5862840000000000    0.9657618000000000 Na
   0.5957413800000000    0.4137160000000000    0.5342382000000000 Na
   0.4042586200000000    0.0862840000000000    0.0342381999999990 Na
   0.9042586200000000    0.9137160000000000    0.4657618000000000 Na
   0.3666657000000000    0.8632187100000001    0.6676431500000000 Na
   0.8666657000000000    0.1367812900000000    0.8323568500000000 Na
   0.1333343000000000    0.3632187100000000    0.3323568500000000 Na
   0.6333343000000000    0.6367812900000001    0.1676431500000000 Na
   0.8633910200000000    0.6931854300000000    0.7159832200000000 P
   0.3633910200000000    0.3068135700000000    0.7840167800000000 P
   0.6366089800000000    0.1931864300000000    0.2840167800000000 P
   0.1366089800000000    0.8068145700000000    0.2159832200000000 P
   0.5968893700000000    0.5706311500000000    0.8665896500000000 P
   0.0968893700000000    0.4293688500000000    0.6334103500000000 P
   0.9031106300000000    0.0706311500000000    0.1334103500000000 P
   0.4031106300000000    0.9293688500000000    0.3665896500000000 P
