In6 As6
1.0
   2.8634239999999993   -2.9864669999999993    0.0000000000000000
   2.8634239999999993    2.9864669999999993    0.0000000000000000
   0.0000000000000000    0.0000000000000000   16.9504400000000004
In As
6 6
direct
   0.5865140000000000    0.4134859999999990    0.5902820000000000 In
   0.0468279999999990    0.9531719999999990    0.2500000000000000 In
   0.5865140000000000    0.4134859999999990    0.9097179999999990 In
   0.9531719999999990    0.0468279999999990    0.7500000000000000 In
   0.4134859999999990    0.5865140000000000    0.0902820000000000 In
   0.4134859999999990    0.5865140000000000    0.4097179999999990 In
   0.0760980000000000    0.9239020000000000    0.5695510000000000 As
   0.4427390000000000    0.5572610000000000    0.7500000000000000 As
   0.9239020000000000    0.0760980000000000    0.4304489999999990 As
   0.5572610000000000    0.4427390000000000    0.2500000000000000 As
   0.9239020000000000    0.0760980000000000    0.0695510000000000 As
   0.0760980000000000    0.9239020000000000    0.9304490000000000 As
