Ho1 Tl1
1.0
   3.7474273999999999    0.0000000000000000   -0.0000000000000000
   0.0000000000000000    3.7474273999999999    0.0000000000000000
   0.0000000000000000    0.0000000000000000    3.7474273999999999
Ho Tl
1 1
direct
  -0.0000000000000000   -0.0000000000000000   -0.0000000000000000 Ho
   0.5000000000000000    0.5000000000000000    0.5000000000000000 Tl
