Cs2 La2
1.0
   1.9388390000000000   -3.3581680000000000    0.0000000000000000
   1.9388390000000000    3.3581680000000000    0.0000000000000000
   0.0000000000000000    0.0000000000000000   15.1605869999999996
Cs La
2 2
direct
   0.6666670000000000    0.3333330000000000    0.5695589999999990 Cs
   0.3333330000000000    0.6666670000000000    0.0695590000000000 Cs
   0.6666670000000000    0.3333330000000000    0.8054410000000000 La
   0.3333330000000000    0.6666670000000000    0.3054409999999990 La
