Eu4 Ni4 O12
1.0
   5.3295186499999998    0.0000000000000000    0.0000000000000000
   0.0000000000000000    5.3202761100000000    0.0000000000000000
   0.0000000000000000    0.0000000000000000    7.5838239500000002
Eu Ni O
4 4 12
direct
   0.0044743200000000    0.9640182600000000    0.7500000000000000 Eu
   0.5044743200000000    0.5359817400000000    0.2500000000000000 Eu
   0.4955256800000000    0.4640182600000000    0.7500000000000000 Eu
   0.9955256800000000    0.0359817400000000    0.2500000000000000 Eu
   0.5000000000000000   -0.0000000000000000    0.5000000000000000 Ni
   0.0000000000000000    0.5000000000000000    0.5000000000000000 Ni
   0.0000000000000000    0.5000000000000000    0.0000000000000000 Ni
   0.5000000000000000   -0.0000000000000000    0.0000000000000000 Ni
   0.7058551900000000    0.2946209700000000    0.4672638700000000 O
   0.2058551900000000    0.2053790300000000    0.5327361300000000 O
   0.7941448100000000    0.7946209700000000    0.0327361300000000 O
   0.2941448100000000    0.7053790300000000    0.9672638700000000 O
   0.2941448100000000    0.7053790300000000    0.5327361300000000 O
   0.7941448100000000    0.7946209700000000    0.4672638700000000 O
   0.2058551900000000    0.2053790300000000    0.9672638700000000 O
   0.7058551900000000    0.2946209700000000    0.0327361300000000 O
   0.0654222800000000    0.4927435200000000    0.2500000000000000 O
   0.5654222800000001    0.0072564800000000    0.7500000000000000 O
   0.4345777200000000    0.9927435200000000    0.2500000000000000 O
   0.9345777200000001    0.5072564800000000    0.7500000000000000 O
