Yb1 Ir1
1.0
   3.3435557127284050    0.0000000000000000    0.0000000000000000
   0.0000000000000000    3.3435557127284050   -0.0000000000000000
   0.0000000000000000    0.0000000000000000    3.3435557127284050
Yb Ir
1 1
direct
   0.0000000000000000    0.0000000000000000    0.0000000000000000 Yb
   0.5000000000000000    0.5000000000000000    0.5000000000000000 Ir
