La3 Y3
1.0
  -1.8579411299999999   -3.2180475999999998    0.0000000700000000
   3.7153264500000001    0.0003202800000000   -0.0004940500000000
   1.8552006100000000   -1.0711013100000000   17.9408414399999998
La Y
3 3
direct
   0.0015616800000000    0.0031222999999990    0.9953436300000000 La
   0.4995019900000000    0.9990031400000000    0.5015063500000000 La
   0.6102536200000001    0.2205075400000000    0.1688835600000000 La
   0.1101150700000000    0.2202309300000000    0.6692162300000000 Y
   0.8879689100000000    0.7759395400000000    0.3363251400000000 Y
   0.3905987300000000    0.7811965500000000    0.8287240900000000 Y
