Lu1 Te1
1.0
   4.0051008299999999    0.0000029800000000    0.0000085100000000
  -2.0025359200000001    3.4686980099999989   -0.0000090300000000
   0.0000053600000000   -0.0000040300000000    3.9682958600000000
Lu Te
1 1
direct
   0.6666645800000001    0.3333169700000000    0.7499882000000000 Lu
   0.3333394200000000    0.6666830300000001    0.2500108000000000 Te
