Mg12 Si12
1.0
  -5.3312730000000004    0.0000000000000000    0.0000000000000000
   1.4536570000000000    6.0567970000000004    0.0000000000000000
  -0.3603280000000000   -2.6703580000000002  -14.0299350000000000
Mg Si
12 12
direct
   0.1269300000000000    0.6013900000000001    0.2638419999999990 Mg
   0.3663100000000000    0.6932739999999999    0.5802619999999999 Mg
   0.7111090000000000    0.6688560000000000    0.9438920000000000 Mg
   0.0697059999999990    0.0988459999999990    0.2692270000000000 Mg
   0.3488270000000000    0.2163030000000000    0.6190080000000000 Mg
   0.7655930000000000    0.1719139999999990    0.9226390000000000 Mg
   0.6336900000000001    0.3067260000000000    0.4197380000000000 Mg
   0.9302940000000000    0.9011540000000000    0.7307730000000000 Mg
   0.2344069999999990    0.8280860000000000    0.0773610000000000 Mg
   0.6511730000000000    0.7836970000000000    0.3809920000000000 Mg
   0.8730700000000001    0.3986100000000000    0.7361580000000000 Mg
   0.2888910000000000    0.3311440000000000    0.0561080000000000 Mg
   0.5442129999999999    0.9958840000000000    0.2360769999999990 Si
   0.8180440000000000    0.1071970000000000    0.5661800000000000 Si
   0.1933770000000000    0.9682569999999990    0.9042540000000000 Si
   0.5505420000000000    0.4020979999999990    0.2378090000000000 Si
   0.8746849999999990    0.7108660000000000    0.5427560000000000 Si
   0.1850830000000000    0.5451969999999990    0.9006940000000000 Si
   0.1253149999999990    0.2891340000000000    0.4572440000000000 Si
   0.4557870000000000    0.0041160000000000    0.7639230000000000 Si
   0.8149170000000000    0.4548029999999990    0.0993059999999990 Si
   0.1819559999999990    0.8928030000000000    0.4338200000000000 Si
   0.4494579999999990    0.5979019999999990    0.7621910000000000 Si
   0.8066230000000000    0.0317430000000000    0.0957460000000000 Si
