Mg6 Cd6
1.0
   5.0447147499999998    0.0000000000000000    0.0000000000000000
   0.0000000000000000    9.3663168700000003    0.0000000000000000
   0.0000000000000000    0.0000000000000000    5.3296979599999998
Mg Cd
6 6
direct
   0.0000000000000000    0.1701287400000000    0.1589814700000000 Mg
  -0.0000000000000000    0.3298712600000000    0.6589814700000001 Mg
   0.5000000000000000    0.5000000000000000    0.8447011800000001 Mg
  -0.0000000000000000    0.6701287400000000    0.6589814700000001 Mg
   0.0000000000000000    0.8298712600000000    0.1589814700000000 Mg
   0.5000000000000000   -0.0000000000000000    0.3447011800000000 Mg
   0.0000000000000000    0.5000000000000000    0.1589579400000000 Cd
   0.5000000000000000    0.3333003400000000    0.3391899600000000 Cd
   0.5000000000000000    0.1666996600000000    0.8391899600000000 Cd
  -0.0000000000000000   -0.0000000000000000    0.6589579400000000 Cd
   0.5000000000000000    0.8333003400000000    0.8391899600000000 Cd
   0.5000000000000000    0.6666996600000000    0.3391899600000000 Cd
