Nd4 Fe4 O12
1.0
   4.5233169999999996    0.0000000000000000    0.0000000000000000
   0.0000000000000000    5.1255590000000000    0.0000000000000000
   0.0000000000000000    0.0000000000000000   12.1482600000000005
Nd Fe O
4 4 12
direct
   0.5339720000000000    0.6083120000000000    0.2500000000000000 Nd
   0.9660280000000000    0.1083119999999990    0.2500000000000000 Nd
   0.0339719999999990    0.8916879999999990    0.7500000000000000 Nd
   0.4660280000000000    0.3916880000000000    0.7500000000000000 Nd
   0.5000000000000000    0.5000000000000000    0.5000000000000000 Fe
   0.0000000000000000    0.0000000000000000    0.0000000000000000 Fe
   0.5000000000000000    0.5000000000000000    0.0000000000000000 Fe
   0.0000000000000000    0.0000000000000000    0.5000000000000000 Fe
   0.2657470000000000    0.2394089999999990    0.5613650000000000 O
   0.2342530000000000    0.7394090000000000    0.5613650000000000 O
   0.7657470000000000    0.2605909999999990    0.0613649999999990 O
   0.0491459999999990    0.5332080000000000    0.2500000000000000 O
   0.5491460000000000    0.9667920000000000    0.7500000000000000 O
   0.7342529999999990    0.7605910000000000    0.4386350000000000 O
   0.4508540000000000    0.0332080000000000    0.2500000000000000 O
   0.7657470000000000    0.2605909999999990    0.4386350000000000 O
   0.7342529999999990    0.7605910000000000    0.0613649999999990 O
   0.2342530000000000    0.7394090000000000    0.9386350000000000 O
   0.9508540000000000    0.4667920000000000    0.7500000000000000 O
   0.2657470000000000    0.2394089999999990    0.9386350000000000 O
