Al1 Re1
1.0
   3.0627430000000002    0.0000000000000000    0.0000000000000000
   0.0000000000000000    3.0627430000000002    0.0000000000000000
   0.0000000000000000    0.0000000000000000    3.0627430000000002
Al Re
1 1
direct
   0.0000000000000000    0.0000000000000000    0.0000000000000000 Al
   0.5000000000000000    0.5000000000000000    0.5000000000000000 Re
