Rb6 Mg6 H18
1.0
   2.9433530499999998   -5.0980118000000001    0.0000001500000000
   2.9433527600000002    5.0980116400000002   -0.0000001800000000
  -0.0000000600000000    0.0000005200000000   14.2838567699999999
Rb Mg H
6 6 18
direct
   0.0000004200000000   -0.0000002400000000    0.7499999800000000 Rb
  -0.0000002200000000    0.0000003800000000    0.2500000000000000 Rb
   0.3333333400000000    0.6666678300000000    0.4045118900000000 Rb
   0.6666672400000000    0.3333318400000000    0.9045120999999990 Rb
   0.6666669300000000    0.3333317100000000    0.5954879000000000 Rb
   0.3333328000000000    0.6666675999999990    0.0954881700000000 Rb
   0.3333381500000000    0.6666621600000000    0.8458580700000000 Mg
   0.6666620700000000    0.3333378600000000    0.3458580700000000 Mg
   0.6666619300000001    0.3333382400000000    0.1541419500000000 Mg
   0.3333384000000000    0.6666621300000000    0.6541419500000000 Mg
  -0.0000002400000000    0.0000000500000000    0.4999999900000000 Mg
  -0.0000001800000000   -0.0000001100000000   -0.0000000400000000 Mg
   0.4760970900000000    0.9521823300000000    0.7499999700000000 H
   0.5239026999999991    0.4760971100000000    0.2500000300000000 H
   0.9521824300000000    0.4760971700000000    0.2500000300000000 H
   0.0478176400000000    0.5239029200000000    0.7499999800000000 H
   0.4760972900000000    0.5239027200000000    0.7500000300000000 H
   0.5239033800000000    0.0478177700000000    0.2500000000000000 H
   0.1661046400000000    0.8338952100000000    0.9201504400000000 H
   0.1661044500000000    0.3322087700000000    0.9201508300000000 H
   0.6677912500000001    0.8338955700000000    0.9201508300000000 H
   0.3322087400000000    0.1661045600000000    0.4201508500000000 H
   0.8338954300000000    0.6677913800000000    0.0798491400000000 H
   0.8338952600000000    0.1661047900000000    0.4201504400000000 H
   0.1661045500000000    0.3322086700000000    0.5798491600000000 H
   0.8338952100000000    0.1661048500000000    0.0798495600000000 H
   0.3322086800000000    0.1661045800000000    0.0798491700000000 H
   0.6677914100000000    0.8338955200000000    0.5798491200000000 H
   0.1661048100000000    0.8338953200000000    0.5798495900000000 H
   0.8338954200000001    0.6677912900000000    0.4201508100000000 H
