P16 Se16
1.0
   7.3609814499999997    0.0000000000000000    0.0000000000000000
   0.0000000000000000   10.4410528300000003   -5.0950664300000001
   0.0000000000000000    0.0345591700000000   11.9743033499999996
P Se
16 16
direct
   0.9965773999999999    0.7627154600000000    0.1612914100000000 P
   0.4965774000000000    0.2372845400000000    0.3387085900000000 P
   0.0034226000000000    0.2372845400000000    0.8387085900000000 P
   0.5034225999999991    0.7627154600000000    0.6612914100000000 P
   0.8123845600000000    0.6710100800000001    0.2419314200000000 P
   0.3123845600000000    0.3289899200000000    0.2580685800000000 P
   0.1876154400000000    0.3289899200000000    0.7580685800000000 P
   0.6876154400000000    0.6710100800000001    0.7419314200000000 P
   0.1958865100000000    0.8249700900000000    0.4373733900000000 P
   0.6958865100000000    0.1750299100000000    0.0626266100000000 P
   0.8041134900000000    0.1750299100000000    0.5626266100000000 P
   0.3041134900000000    0.8249700900000000    0.9373733900000000 P
   0.3733670200000000    0.6786674800000000    0.3028342800000000 P
   0.8733670200000000    0.3213325200000000    0.1971657200000000 P
   0.6266329800000000    0.3213325200000000    0.6971657200000000 P
   0.1266329800000000    0.6786674800000000    0.8028342800000000 P
   0.5867966900000000    0.8215299800000000    0.3025822500000000 Se
   0.0867966900000000    0.1784700200000000    0.1974177500000000 Se
   0.4132033100000000    0.1784700200000000    0.6974177500000001 Se
   0.9132033100000000    0.8215299800000000    0.8025822500000001 Se
   0.9551577300000000    0.6968899300000000    0.4210530800000000 Se
   0.4551577300000000    0.3031100700000000    0.0789469200000000 Se
   0.0448422700000000    0.3031100700000000    0.5789469200000000 Se
   0.5448422700000000    0.6968899300000000    0.9210530800000000 Se
   0.1064200600000000    0.9323125000000000    0.3283400700000000 Se
   0.6064200600000000    0.0676875000000000    0.1716599300000000 Se
   0.8935799400000001    0.0676875000000000    0.6716599300000000 Se
   0.3935789400000000    0.9323125000000000    0.8283400700000000 Se
   0.2190397100000000    0.6129685100000000    0.1195050300000000 Se
   0.7190397100000000    0.3870314900000000    0.3804949700000000 Se
   0.7809602900000000    0.3870314900000000    0.8804949700000000 Se
   0.2809602900000000    0.6129685100000000    0.6195050300000000 Se
