Sm4 Cr4 Sb12
1.0
   6.0866639999999999    0.0000000000000000    0.0000000000000000
   0.0000000000000000    6.2315220000000000    0.0000000000000000
   0.0000000000000000    0.0000000000000000   13.0376910000000006
Sm Cr Sb
4 4 12
direct
   0.2500000000000000    0.5046189999999990    0.3084300000000000 Sm
   0.7500000000000000    0.4953809999999990    0.6915700000000000 Sm
   0.2500000000000000    0.0046190000000000    0.6915700000000000 Sm
   0.7500000000000000    0.9953810000000000    0.3084300000000000 Sm
   0.0000000000000000    0.7500000000000000    0.9060000000000000 Cr
   0.0000000000000000    0.2500000000000000    0.0940000000000000 Cr
   0.5000000000000000    0.2500000000000000    0.0940000000000000 Cr
   0.5000000000000000    0.7500000000000000    0.9060000000000000 Cr
   0.0000000000000000    0.7500000000000000    0.5014729999999999 Sb
   0.0000000000000000    0.2500000000000000    0.4985270000000000 Sb
   0.5000000000000000    0.2500000000000000    0.4985270000000000 Sb
   0.5000000000000000    0.7500000000000000    0.5014729999999999 Sb
   0.2500000000000000    0.6013430000000000    0.0628710000000000 Sb
   0.7500000000000000    0.3986570000000000    0.9371290000000000 Sb
   0.2500000000000000    0.1013429999999990    0.9371290000000000 Sb
   0.7500000000000000    0.8986569999999990    0.0628710000000000 Sb
   0.2500000000000000    0.9981470000000000    0.2207680000000000 Sb
   0.7500000000000000    0.0018529999999990    0.7792319999999990 Sb
   0.2500000000000000    0.4981469999999991    0.7792319999999990 Sb
   0.7500000000000000    0.5018530000000000    0.2207680000000000 Sb
