V1 Mo1
1.0
   1.3493919999999999   -2.3372159999999989    0.0000000000000000
   1.3493919999999999    2.3372159999999989    0.0000000000000000
   0.0000000000000000    0.0000000000000000    4.8003819999999999
V Mo
1 1
direct
   0.0000000000000000    0.0000000000000000    0.0000000000000000 V
   0.3333330000000000    0.6666670000000000    0.5000000000000000 Mo
