Nd1 Cd1
1.0
   3.8446074700000001    0.0000000000000000    0.0000000000000000
   0.0000000000000000    3.8446074700000001    0.0000000000000000
  -0.0000000000000000   -0.0000000000000000    3.8446074700000001
Nd Cd
1 1
direct
   0.5000000000000000    0.5000000000000000    0.5000000000000000 Nd
   0.0000000000000000    0.0000000000000000    0.0000000000000000 Cd
