Gd1 Te1
1.0
   3.8125430900000001   -0.0000000000000000    2.2011717399999999
   1.2708480300000000    3.5945004200000001    2.2011717399999999
  -0.0000000200000000   -0.0000000200000000    4.4023465599999998
Gd Te
1 1
direct
   0.0000000000000000   -0.0000000000000000    0.0000000000000000 Gd
   0.5000000000000000    0.5000000000000000    0.5000000000000000 Te
