Ce3 Mg3
1.0
   1.5579242799999999   -2.6984662600000000    0.0000000000000000
   1.5579242799999999    2.6984662600000000    0.0000000000000000
   0.0000000000000000    0.0000000000000000   17.3172602699999985
Ce Mg
3 3
direct
   0.6666635600000000    0.3333364400000000   -0.0000000000000000 Ce
  -0.0000197200000000    0.0000197200000000    0.8209920900000001 Ce
  -0.0000197200000000    0.0000197200000000    0.1790079100000000 Ce
   0.6666520400000000    0.3333479600000000    0.6510645500000000 Mg
   0.0000728000000000   -0.0000728000000000    0.5000000000000000 Mg
   0.6666520400000000    0.3333479600000000    0.3489354500000000 Mg
