Mn2 Bi2
1.0
   2.0629270000000002   -3.5730939999999989    0.0000000000000000
   2.0629270000000002    3.5730939999999989    0.0000000000000000
   0.0000000000000000    0.0000000000000000    6.9141079999999997
Mn Bi
2 2
direct
   0.6666670000000000    0.3333330000000000    0.7500000000000000 Mn
   0.3333330000000000    0.6666670000000000    0.2500000000000000 Mn
   0.0000000000000000    0.0000000000000000    0.5000000000000000 Bi
   0.0000000000000000    0.0000000000000000    0.0000000000000000 Bi
