Ho2 Si2
1.0
   3.8024104799999998   -0.0000000000000000   -0.0000000000000000
  -0.0000000000000000    3.9399613400000000   -1.5911540600000000
   0.0000000000000000   -0.0095833999999990    5.6498452300000004
Ho Si
2 2
direct
   0.2500000000000000    0.8593965200000000    0.7187910300000000 Ho
   0.7500000000000000    0.1406034800000000    0.2812089700000000 Ho
   0.2500000000000000    0.5763753900000000    0.1527527800000000 Si
   0.7500000000000000    0.4236246100000000    0.8472472200000000 Si
