Mg12 Co12
1.0
   0.0000000000000000    5.6768380000000001    5.6768380000000001
   5.6768380000000001    0.0000000000000000    5.6768380000000001
   5.6768380000000001    5.6768380000000001    0.0000000000000000
Mg Co
12 12
direct
   0.5487339999999991    0.5487339999999991    0.9512659999999999 Mg
   0.9512659999999999    0.5487339999999991    0.9512659999999999 Mg
   0.9512659999999999    0.5487339999999991    0.5487339999999991 Mg
   0.2987340000000000    0.7012659999999999    0.7012659999999999 Mg
   0.7012659999999999    0.7012659999999999    0.2987340000000000 Mg
   0.2987340000000000    0.7012659999999999    0.2987340000000000 Mg
   0.9512659999999999    0.9512659999999999    0.5487339999999991 Mg
   0.5487339999999991    0.9512659999999999    0.5487339999999991 Mg
   0.5487339999999991    0.9512659999999999    0.9512659999999999 Mg
   0.2987340000000000    0.2987340000000000    0.7012659999999999 Mg
   0.7012659999999999    0.2987340000000000    0.2987340000000000 Mg
   0.7012659999999999    0.2987340000000000    0.7012659999999999 Mg
   0.1250000000000000    0.6250000000000000    0.1250000000000000 Co
   0.9225430000000000    0.9225430000000000    0.9225430000000000 Co
   0.9225430000000000    0.9225430000000000    0.2323700000000000 Co
   0.2323700000000000    0.9225430000000000    0.9225430000000000 Co
   0.3274570000000000    0.0176300000000000    0.3274570000000000 Co
   0.6250000000000000    0.1250000000000000    0.1250000000000000 Co
   0.1250000000000000    0.1250000000000000    0.6250000000000000 Co
   0.1250000000000000    0.1250000000000000    0.1250000000000000 Co
   0.9225430000000000    0.2323700000000000    0.9225430000000000 Co
   0.3274570000000000    0.3274570000000000    0.3274570000000000 Co
   0.0176300000000000    0.3274570000000000    0.3274570000000000 Co
   0.3274570000000000    0.3274570000000000    0.0176300000000000 Co
