Hf4 Si4
1.0
   3.7682256600000001    0.0000000000000000    0.0000000000000000
   0.0000000000000000    5.2234471500000001    0.0000000000000000
   0.0000000000000000    0.0000000000000000    6.8623964900000001
Hf Si
4 4
direct
   0.2500000000000000    0.3743923999999990    0.6751441400000000 Hf
   0.7500000000000000    0.6256075999999990    0.3248558600000000 Hf
   0.7500000000000000    0.8743924000000000    0.8248558600000000 Hf
   0.2500000000000000    0.1256075999999990    0.1751441400000000 Hf
   0.2500000000000000    0.8608704700000001    0.5431242300000000 Si
   0.7500000000000000    0.1391295300000000    0.4568747700000000 Si
   0.7500000000000000    0.3608704700000000    0.9568757700000000 Si
   0.2500000000000000    0.6391295300000001    0.0431242300000000 Si
