Tl32 S32
1.0
   8.0272439999999996    0.0000000000000000    0.0000000000000000
   0.0000000000000000    8.0272439999999996    0.0000000000000000
   0.0000000000000000    0.0000000000000000   29.9918690000000012
Tl S
32 32
direct
   0.4188190000000000    0.6280920000000000    0.8174429999999990 Tl
   0.8781549999999990    0.8707450000000000    0.2027989999999990 Tl
   0.1292549999999990    0.1218450000000000    0.2972010000000000 Tl
   0.9101730000000000    0.3739460000000000    0.9362450000000000 Tl
   0.6267450000000000    0.1254390000000000    0.6974030000000000 Tl
   0.1267450000000000    0.3745610000000000    0.0525970000000000 Tl
   0.6292550000000000    0.3781549999999990    0.4527990000000000 Tl
   0.6218450000000000    0.3707450000000000    0.0472010000000000 Tl
   0.4101729999999990    0.1260540000000000    0.8137550000000000 Tl
   0.3781549999999990    0.6292550000000000    0.5472009999999990 Tl
   0.8707450000000000    0.8781549999999990    0.7972009999999990 Tl
   0.1254390000000000    0.6267450000000000    0.3025970000000000 Tl
   0.6260540000000000    0.0898269999999990    0.5637550000000000 Tl
   0.9188189999999991    0.8719079999999990    0.9325570000000000 Tl
   0.1280919999999990    0.0811810000000000    0.5674429999999990 Tl
   0.0898269999999990    0.6260540000000000    0.4362450000000000 Tl
   0.8739460000000000    0.5898270000000000    0.6862450000000000 Tl
   0.5898270000000000    0.8739460000000000    0.3137550000000000 Tl
   0.6254390000000000    0.8732550000000000    0.4474030000000000 Tl
   0.6280920000000000    0.4188190000000000    0.1825570000000000 Tl
   0.1260540000000000    0.4101729999999990    0.1862450000000000 Tl
   0.8745609999999990    0.3732550000000000    0.8025970000000000 Tl
   0.3745610000000000    0.1267450000000000    0.9474030000000000 Tl
   0.3719079999999990    0.5811809999999999    0.6825570000000000 Tl
   0.3739460000000000    0.9101730000000000    0.0637549999999990 Tl
   0.0811810000000000    0.1280919999999990    0.4325569999999990 Tl
   0.3707450000000000    0.6218450000000000    0.9527990000000000 Tl
   0.3732550000000000    0.8745609999999990    0.1974030000000000 Tl
   0.8719079999999990    0.9188189999999991    0.0674430000000000 Tl
   0.5811809999999999    0.3719079999999990    0.3174430000000000 Tl
   0.1218450000000000    0.1292549999999990    0.7027990000000000 Tl
   0.8732550000000000    0.6254390000000000    0.5525970000000000 Tl
   0.8848739999999991    0.8848739999999991    0.5000000000000000 S
   0.6870680000000000    0.1318369999999990    0.3996409999999990 S
   0.6161759999999999    0.8579690000000000    0.7425060000000000 S
   0.8645450000000000    0.1354550000000000    0.2500000000000000 S
   0.3129320000000000    0.8681629999999990    0.8996409999999990 S
   0.6420310000000000    0.1161760000000000    0.9925060000000000 S
   0.1318369999999990    0.6870680000000000    0.6003590000000000 S
   0.6192650000000000    0.6838400000000000    0.6018789999999991 S
   0.8838239999999991    0.3579690000000000    0.5074940000000000 S
   0.8579690000000000    0.6161759999999999    0.2574940000000000 S
   0.3838240000000000    0.1420310000000000    0.2425060000000000 S
   0.3579690000000000    0.8838239999999991    0.4925060000000000 S
   0.1354550000000000    0.8645450000000000    0.7500000000000000 S
   0.3848740000000000    0.6151260000000000    0.2500000000000000 S
   0.6318370000000000    0.8129320000000000    0.1496410000000000 S
   0.6151260000000000    0.3848740000000000    0.7500000000000000 S
   0.3161600000000001    0.3807350000000000    0.8981209999999999 S
   0.1151259999999990    0.1151259999999990    0.0000000000000000 S
   0.8129320000000000    0.6318370000000000    0.8503590000000000 S
   0.8161600000000001    0.1192650000000000    0.8518789999999991 S
   0.1870679999999990    0.3681629999999990    0.3503590000000000 S
   0.3681629999999990    0.1870679999999990    0.6496410000000000 S
   0.3807350000000000    0.3161600000000001    0.1018790000000000 S
   0.3645450000000000    0.3645450000000000    0.5000000000000000 S
   0.6354550000000000    0.6354550000000000    0.0000000000000000 S
   0.8807349999999990    0.1838400000000000    0.6481209999999999 S
   0.1161760000000000    0.6420310000000000    0.0074940000000000 S
   0.1838400000000000    0.8807349999999990    0.3518790000000000 S
   0.1420310000000000    0.3838240000000000    0.7574940000000000 S
   0.8681629999999990    0.3129320000000000    0.1003589999999990 S
   0.1192650000000000    0.8161600000000001    0.1481210000000000 S
   0.6838400000000000    0.6192650000000000    0.3981210000000000 S
