Fe1 Co1
1.0
   1.4167254100000000   -2.0072485499999999    0.0000000000000000
   1.4167254100000000    2.0072485499999999    0.0000000000000000
   0.0000000000000000    0.0000000000000000    3.9945202300000000
Fe Co
1 1
direct
   0.5000000000000000    0.5000000000000000    0.5000000000000000 Fe
  -0.0000000000000000    0.0000000000000000   -0.0000000000000000 Co
