Eu2 As2
1.0
   4.0001069999999999    2.3094630000000000    0.0000000000000000
  -4.0001069999999999    2.3094630000000000    0.0000000000000000
   0.0000000000000000    0.0000000000000000    6.2090059999999996
Eu As
2 2
direct
   0.3333330000000000    0.6666670000000000    0.5000000000000000 Eu
   0.6666670000000000    0.3333330000000000    0.0000000000000000 Eu
   0.0000000000000000    0.0000000000000000    0.7537000000000000 As
   0.0000000000000000    0.0000000000000000    0.2463000000000000 As
