Na4 I4 O12
1.0
   5.5662240000000001    0.0000000000000000    0.0000000000000000
   0.0000000000000000    7.4212780000000000    0.0000000000000000
   0.0000000000000000    0.0000000000000000    8.5999599999999994
Na I O
4 4 12
direct
   0.9971160000000000    0.4861419999999990    0.4961400000000000 Na
   0.4971160000000000    0.0138579999999990    0.4961400000000000 Na
   0.5028840000000000    0.9861420000000000    0.9961400000000000 Na
   0.0028840000000000    0.5138579999999990    0.9961400000000000 Na
   0.0247510000000000    0.9957009999999999    0.7515560000000000 I
   0.5247510000000000    0.5042989999999991    0.7515560000000000 I
   0.4752490000000000    0.4957010000000000    0.2515560000000000 I
   0.9752489999999990    0.0042990000000000    0.2515560000000000 I
   0.1969630000000000    0.4772269999999990    0.7463520000000000 O
   0.5990170000000000    0.6535670000000000    0.9135850000000000 O
   0.1114560000000000    0.8590190000000000    0.5841670000000000 O
   0.6114560000000000    0.6409810000000000    0.5841670000000000 O
   0.9009830000000000    0.1535669999999990    0.4135850000000000 O
   0.0990170000000000    0.8464330000000000    0.9135850000000000 O
   0.4009830000000000    0.3464330000000000    0.4135850000000000 O
   0.3030370000000000    0.9772270000000000    0.2463520000000000 O
   0.8030370000000000    0.5227729999999990    0.2463520000000000 O
   0.6969630000000000    0.0227729999999990    0.7463520000000000 O
   0.8885440000000000    0.1409810000000000    0.0841669999999990 O
   0.3885440000000000    0.3590190000000000    0.0841669999999990 O
