Yb1 Ta1
1.0
   1.5756219561438900   -2.7290571055012078    0.0000000000000000
   1.5756219561438900    2.7290571055012078    0.0000000000000000
  -0.0000000000000000   -0.0000000000000000    5.1671158989944237
Yb Ta
1 1
direct
   0.0000000000000000    0.0000000000000000    0.0000000000000000 Yb
   0.3333330000000030    0.6666669999999960    0.5000000000000000 Ta
