Si1 Sn1 O3
1.0
   3.7122190000000002    0.0000000000000000    0.0000000000000000
   0.0000000000000000    3.7122190000000002    0.0000000000000000
   0.0000000000000000    0.0000000000000000    3.7122190000000002
Si Sn O
1 1 3
direct
   0.5000000000000000    0.5000000000000000    0.5000000000000000 Si
   0.0000000000000000    0.0000000000000000    0.0000000000000000 Sn
   0.5000000000000000    0.5000000000000000    0.0000000000000000 O
   0.5000000000000000    0.0000000000000000    0.5000000000000000 O
   0.0000000000000000    0.5000000000000000    0.5000000000000000 O
