Ti1 H1
1.0
  -2.0896972200000001   -2.0896972200000001   -0.0000000000000000
  -2.0896972200000001    0.0000000000000000   -2.0896972200000001
  -0.0000000000000000   -2.0896972200000001   -2.0896972200000001
Ti H
1 1
direct
   0.0000000000000000   -0.0000000000000000    0.0000000000000000 Ti
   0.5000000000000000    0.5000000000000000    0.5000000000000000 H
