Rb1 P1
1.0
   2.4456650000000000    4.3043920000000000    0.0000000000000000
  -2.4456650000000000    4.3043920000000000    0.0000000000000000
   0.0000000000000000    2.9132870000000000    4.1453870000000004
Rb P
1 1
direct
   0.0000000000000000    0.0000000000000000    0.0000000000000000 Rb
   0.5000000000000000    0.5000000000000000    0.5000000000000000 P
