Mg3 Zn3
1.0
   1.5187089999999990    5.5320219999999987    0.0000000000000000
  -1.5187089999999990    5.5320219999999987    0.0000000000000000
   0.0000000000000000    1.8559530000000000    6.5872299999999999
Mg Zn
3 3
direct
   0.9990200000000001    0.9990200000000001    0.0167980000000000 Mg
   0.6675100000000000    0.6675100000000000    0.6478110000000000 Mg
   0.2784250000000000    0.2784250000000000    0.9468869999999990 Mg
   0.6082029999999990    0.6082029999999990    0.2838750000000000 Zn
   0.3362810000000000    0.3362810000000000    0.3336190000000000 Zn
   0.9438940000000000    0.9438940000000000    0.6043430000000000 Zn
