Ge1 Sb1
1.0
   2.9446829999999999    0.0000000000000000    0.0000000000000000
   0.0000000000000000    2.9446829999999999    0.0000000000000000
   0.0000000000000000    0.0000000000000000    5.8560710000000000
Ge Sb
1 1
direct
   0.0000000000000000    0.0000000000000000    0.0000000000000000 Ge
   0.0000000000000000    0.0000000000000000    0.5000000000000000 Sb
