Fe4 P4
1.0
   3.0491419999999998    0.0000000000000000    0.0000000000000000
   0.0000000000000000    5.1526740000000002    0.0000000000000000
   0.0000000000000000    0.0000000000000000    5.7655469999999998
Fe P
4 4
direct
   0.2500000000000000    0.5008880000000000    0.2981350000000000 Fe
   0.7500000000000000    0.4991120000000000    0.7018650000000000 Fe
   0.2500000000000000    0.0008880000000000    0.2018650000000000 Fe
   0.7500000000000000    0.9991120000000000    0.7981349999999990 Fe
   0.2500000000000000    0.6908860000000000    0.9329250000000000 P
   0.7500000000000000    0.3091140000000000    0.0670750000000000 P
   0.2500000000000000    0.1908860000000000    0.5670750000000000 P
   0.7500000000000000    0.8091140000000000    0.4329250000000000 P
