Sn1 Bi1
1.0
   1.9708150000000000   -2.7531070000000000    0.0000000000000000
   1.9708150000000000    2.7531070000000000    0.0000000000000000
   0.0000000000000000    0.0000000000000000    5.5528839999999997
Sn Bi
1 1
direct
   0.0000000000000000    0.0000000000000000    0.0000000000000000 Sn
   0.5000000000000000    0.5000000000000000    0.5000000000000000 Bi
