Mn4 Te4
1.0
   4.2223939999999986    0.0000000000000000    0.0000000000000000
   0.0000000000000000    7.1472550000000004    0.0000000000000000
   0.0000000000000000    2.2152759999999998    6.7966199999999999
Mn Te
4 4
direct
   0.2500000000000000    0.2985060000000000    0.4751979999999990 Mn
   0.2500000000000000    0.1166249999999990    0.8820060000000000 Mn
   0.7500000000000000    0.8833749999999990    0.1179939999999990 Mn
   0.7500000000000000    0.7014940000000000    0.5248020000000000 Mn
   0.7500000000000000    0.4977250000000000    0.2508080000000000 Te
   0.2500000000000000    0.0035450000000000    0.2804860000000000 Te
   0.2500000000000000    0.5022750000000000    0.7491920000000000 Te
   0.7500000000000000    0.9964550000000000    0.7195140000000000 Te
