Ni2 Cl2
1.0
   1.8094589999999999   -3.1340759999999999    0.0000000000000000
   1.8094589999999999    3.1340759999999999    0.0000000000000000
   0.0000000000000000    0.0000000000000000    6.2406389999999998
Ni Cl
2 2
direct
   0.6666670000000000    0.3333330000000000    0.8661150000000000 Ni
   0.3333330000000000    0.6666670000000000    0.3661149999999990 Ni
   0.6666670000000000    0.3333330000000000    0.5088859999999999 Cl
   0.3333330000000000    0.6666670000000000    0.0088860000000000 Cl
