Mg3 Bi3
1.0
   1.7290100000000002    6.3503860000000003    0.0000000000000000
  -1.7290100000000002    6.3503860000000003    0.0000000000000000
   0.0000000000000000    2.2755570000000001    7.7253990000000003
Mg Bi
3 3
direct
   0.6121090000000000    0.6121090000000000    0.2721560000000000 Mg
   0.3352190000000000    0.3352190000000000    0.3295039999999990 Mg
   0.9380959999999990    0.9380959999999990    0.6185570000000000 Mg
   0.0066700000000000    0.0066700000000000    0.0354470000000000 Bi
   0.6678710000000000    0.6678710000000000    0.6034590000000000 Bi
   0.2733669999999990    0.2733669999999990    0.9742090000000000 Bi
