Zn2 O2
1.0
   1.6026090000000000   -2.7758000000000003    0.0000000000000000
   1.6026090000000000    2.7758000000000003    0.0000000000000000
   0.0000000000000000    0.0000000000000000    5.5169269999999999
Zn O
2 2
direct
   0.0000000000000000    0.0000000000000000    0.5011430000000000 Zn
   0.0000000000000000    0.0000000000000000    0.0011430000000000 Zn
   0.6666670000000000    0.3333330000000000    0.8860570000000000 O
   0.3333330000000000    0.6666670000000000    0.3860570000000000 O
