Li2 Fe2
1.0
   0.0000000000000000    0.0000000000000000    2.3761559999999999
   4.5274419999999997    0.0000000000000000   -1.1880780000000000
   0.0000000000000000    4.5601430000000001    0.0000000000000000
Li Fe
2 2
direct
   0.0000000000000000    0.0000000000000000    0.0000000000000000 Li
   0.0000000000000000    0.0000000000000000    0.5000000000000000 Li
   0.2566430000000000    0.5132850000000000    0.2500000000000000 Fe
   0.7433569999999990    0.4867140000000000    0.7500000000000000 Fe
