Cr2 O2
1.0
   3.0462899999999999   -0.3378540000000000   -0.5219140000000000
   1.2305360000000001    2.8069720000000000    0.5218790000000000
   0.8964590000000000   -1.5527180000000000    5.0819630000000000
Cr O
2 2
direct
   0.6000620000000000    0.4000360000000000    0.3999879999999990 Cr
   0.0999640000000000    0.8999360000000000    0.8999880000000000 Cr
   0.5867930000000000    0.8869190000000000    0.1500129999999990 O
   0.6130800000000001    0.9132089999999990    0.6500110000000000 O
