Na9 Cr6 P6 O24 F9
1.0
   6.4340737344789920    0.0025994924365290   -0.0059808768806251
  -0.0027894302184464    6.4349567397221694   -0.0060504535057550
  -3.1348902149997042   -3.1601702496413453   16.2883626806885147
Na Cr P O F
9 6 6 24 9
direct
   0.7116546686515410    0.5735313799087712    0.6659890195922344 Na
   0.6771158966686703    0.0760488784846374    0.6670022735020551 Na
   0.1642844728796325    0.8274499641584936    0.6666966838011249 Na
   0.9510627797345723    0.9761554931282498    0.3318428122536868 Na
   0.2319224802462714    0.4560397697752291    0.3326903383194477 Na
   0.4413866347086265    0.9788519202419358    0.3333036047750954 Na
   0.2838109535973816    0.3084979059870835    1.0000776895050887 Na
   0.7749548168025628    0.3186592273854648    0.0005037078933094 Na
   0.5307021241037408    0.7932242269273582    0.0004313270254580 Na
   0.4155571168193594    0.4018922187052798    0.7883591319112355 Cr
   0.7558019039804015    0.7296445737689179    0.4548272174290569 Cr
   0.9650888511901027    0.9413694456905786    0.8781758924620298 Cr
   0.0822706055869456    0.0627270636131343    0.1222443537592829 Cr
   0.2950873446142368    0.2789433035188676    0.5443410101715914 Cr
   0.6267800230980075    0.6065439016118201    0.2107267234429827 Cr
   0.4450687798914840    0.9275694333996463    0.8336684572087941 P
   0.7777140215050270    0.2583160178112439    0.4988538741072057 P
   0.9439342623900586    0.4263041046286332    0.8334906508830230 P
   0.1030933283642251    0.5942607694324989    0.1668996535711842 P
   0.2781694734806226    0.7599076436506994    0.4988448779029322 P
   0.6019395190787369    0.0943358101796884    0.1662299479647362 P
   0.2838134870964919    0.9504579737011819    0.8927938747162748 O
   0.4255328476269428    0.7076311335226890    0.7766934423792704 O
   0.4077238420898815    0.0835679040372592    0.7734761267778042 O
   0.6625679527127954    0.9672551326989072    0.8933872180081867 O
   0.6159890632614803    0.2727637999310076    0.5577529409280979 O
   0.7237868015592513    0.3842633640796935    0.7754144524098906 O
   0.7565165892126210    0.0373569995817314    0.4410356985746977 O
   0.7314060135132601    0.4191547085864994    0.4412573824356606 O
   0.9791579493415802    0.2623032507842378    0.8915339799320574 O
   0.9578505558379398    0.6441095015068716    0.8916985477198708 O
   0.9954976304151962    0.2971856108898385    0.5564968331718924 O
   0.1037183893230612    0.4067814364751521    0.7754943186997938 O
   0.9446719169350841    0.6063665167823179    0.2265695836808362 O
   0.0596034345153126    0.7238207973055221    0.4399912174265496 O
   0.0902571169374408    0.3722802413507039    0.1103493401597523 O
   0.0568520362762329    0.7523435710017099    0.1085484066226587 O
   0.3161019517655902    0.5960072518430473    0.5559945527938592 O
   0.2997580893795624    0.9756490762561840    0.5593726873671941 O
   0.3226262409636169    0.6367316679190782    0.2254934207401094 O
   0.4378040026520175    0.7416902898657894    0.4396798775818391 O
   0.3851344042587743    0.0467300604150540    0.1061492243671363 O
   0.6446760678249915    0.9278632284472075    0.2226016594945981 O
   0.6104337175520352    0.3096994597609992    0.2246217925227602 O
   0.7642799699682815    0.0803313921347118    0.1079566979443563 O
   0.3763444263191398    0.3466501380505260    0.6663835896452827 F
   0.4761928464472551    0.4516835909966406    0.9092103669971126 F
   0.6879567564536446    0.6898872079482168    0.3326275614137301 F
   0.8146336801587190    0.7886376128040999    0.5757638836117449 F
   0.9043893939966307    0.8799307597860885    0.7571658817116482 F
   0.0223503167220210    0.0250753584446450    0.0003423824838831 F
   0.1465522820410524    0.1148684523530947    0.2428904498653466 F
   0.2394677880662544    0.2085058608512009    0.4235338465663457 F
   0.5680217086140059    0.5398187045645972    0.0900297865421246 F
