Na3 Mn2 P2 C2 O14
1.0
   5.1919743403027070    0.0002213612094407   -0.0018116098247926
  -0.0430402460167726    6.5854502148536547   -0.0007536172017474
  -0.2293341036841061   -0.1806959143479732    8.9313074443912903
Na Mn P C O
3 2 2 2 14
direct
   0.2400925371877196    0.4745750678554309    0.7597737722768483 Na
   0.7572927079631467    0.5076623800456537    0.2374819019194249 Na
   0.7569110213264806    0.9859126078510021    0.2362322212471217 Na
   0.7891693354878713    0.7639822618257068    0.6541530389099236 Mn
   0.2165136661126706    0.2501362951666798    0.3529547864729954 Mn
   0.7156535264979954    0.2558611368746001    0.5760127375518027 P
   0.2839449268877708    0.7494635503964664    0.4274287135887017 P
   0.7249721240211116    0.7471211313978391    0.9216612626135873 C
   0.2725769723587738    0.2472518337201179    0.0804923023297580 C
   0.2974534033095498    0.2564359719642952    0.9449971596587329 O
   0.9507673724267269    0.7544601613158527    0.8590020351450094 O
   0.5355092355877578    0.7494552681553496    0.8210072950333822 O
   0.7857062718370569    0.0693346129925969    0.6679289489397535 O
   0.7952866291660857    0.4448327736667083    0.6716916125198727 O
   0.4189433110107098    0.2671997980930183    0.5382317935256427 O
   0.1428891567065462    0.7415043238071635    0.5765541152332728 O
   0.8536054242218527    0.2530290337894760    0.4226660213452468 O
   0.5839180368560042    0.7514343189033834    0.4592193519713222 O
   0.2130001926691715    0.5628646324655149    0.3252826735115298 O
   0.2068395213447585    0.9365104655680592    0.3345918899999282 O
   0.4666535947530736    0.2435103067239352    0.1812143439379892 O
   0.0488641529976152    0.2426709150878976    0.1495420944443078 O
   0.6946144370941304    0.7401072634102120    0.0598700377000146 O
