Na8 Lu4 P4 W4 O32
1.0
  -3.4131709064330047    6.0536960773726483    9.1298542271914869
   3.4131684441914971   -6.0536982458380448    9.1298547445427030
   3.4131691307355321    6.0536972446664139   -9.1298556650821343
Na Lu P W O
8 4 4 4 32
direct
   0.9086482025045194    0.8543627363360768    0.0695538889018591 Na
   0.2848089167248090    0.8390942928484072    0.4304460943024542 Na
   0.2151911242598327    0.6456371634875701    0.5542853356549223 Na
   0.5913517348419476    0.6609058147436088    0.9457146173693836 Na
   0.0913253413765371    0.1455879378808778    0.9303260229245095 Na
   0.7152618354611194    0.1609993617855715    0.5696739966672791 Na
   0.7847381163306655    0.3544121725158857    0.4457375366723376 Na
   0.4086747352563876    0.3390005536553152    0.0542624870841865 Na
   0.1772441167800385    0.7499997171497693    0.9272439097401356 Lu
   0.3227559102501503    0.2499999119089006    0.5727558273669277 Lu
   0.8227167730685672    0.2500001725796709    0.0727169355523004 Lu
   0.6772832880123387    0.7500000593920767    0.4272832477589976 Lu
   0.5688793055170215    0.2500000479181874    0.8188793072865751 P
   0.9311207032235554    0.7500000115114348    0.6811206929843430 P
   0.4311541773649111    0.7499999695974975    0.1811541333683656 P
   0.0688458296259749    0.2500000167128292    0.3188458575003290 P
   0.9250494416802200    0.6750494322655480    0.2499999473719781 W
   0.5749505027107358    0.8249504275694201    0.7499998319171042 W
   0.0749325976967094    0.3249326027291869    0.7500000816215310 W
   0.4250674794823479    0.1750675568344237    0.2500001400731277 W
   0.4244914111360453    0.1722158937937231    0.7318326056816081 O
   0.9403832398514097    0.6926587604558397    0.7681671813011653 O
   0.5596167703083096    0.3277837808469103    0.7522752871550775 O
   0.0755085990558784    0.8073411571721001    0.7477245172203170 O
   0.5755154485012147    0.8276989485570413    0.2680544317804747 O
   0.0596445742367476    0.3074610327432331    0.2319457829907329 O
   0.4403554695650747    0.6723013938078045    0.2478167023440180 O
   0.9244845650016535    0.1925389597405841    0.2521833826615550 O
   0.6424816162392087    0.4199915255743205    0.0767512694692940 O
   0.8432402018870476    0.5657301991369680    0.4232487794510835 O
   0.6567598340466709    0.0800087828874345    0.7224900720046218 O
   0.8575184975746697    0.9342696613254596    0.7775100644228770 O
   0.3575233040549926    0.5799412117345170    0.9232222251651118 O
   0.1567191068592257    0.4343012378693916    0.5767778203436502 O
   0.3432809016400772    0.9200584868951334    0.2775820248606611 O
   0.1424766786942350    0.0656989207613747    0.2224178135645916 O
   0.8943529825420709    0.4015866178944649    0.0593859608831986 O
   0.8422006889076206    0.8349665190465292    0.4406135611579063 O
   0.6577994112354295    0.0984131478538860    0.9927661174141542 O
   0.6056470359748016    0.6650334229331166    0.5072339716955795 O
   0.1056864425441398    0.5984239145110224    0.9406571833124751 O
   0.1577667185403397    0.1650297506403442    0.5593432626709083 O
   0.3422332059408759    0.9015763263280855    0.0072627792724293 O
   0.3943135420131977    0.3349702935617017    0.4927371041005433 O
   0.1010813585298607    0.7762146336311782    0.4178923697649795 O
   0.8583225006810042    0.6831882541071578    0.0821070932730964 O
   0.6416777427438022    0.7237854114870595    0.8248667332827052 O
   0.3989186338078914    0.8168107874017903    0.6751330944738025 O
   0.8988988463995009    0.2238786797331859    0.5822104340985910 O
   0.1416679340232328    0.3166891318848937    0.9177900699336682 O
   0.3583318005696420    0.2761212641568029    0.1750201438240305 O
   0.6011011328277501    0.1833118175006471    0.3249799620609211 O
