Na4 Ni8 O16
1.0
   4.8713467646707924    0.0002410237249491    0.0001342333234083
   0.0002856057227731    5.7673832714435509    0.0021429041369041
   0.0005920401808313    5.6949477662447281   11.2654169259325148
Na Ni O
4 8 16
direct
   0.5135933676738875   -0.0036392108157802    0.2517030666919656 Na
   0.8601508330126137    0.5011704950218047    0.7487706064739160 Na
   0.1395058577162979    0.4998955587815047    0.2486800668570839 Na
   0.4854092428658361   -0.0022038085348860    0.7519314346784930 Na
   0.5062558955022488    0.7507637785956687    0.0021714412800901 Ni
   0.5002398292221221    0.2500586014241956    0.9986045140417702 Ni
   0.4993048943228119    0.2507245842182536    0.4989053704362471 Ni
   0.4932042003268005    0.7520521418457623    0.5019424138094694 Ni
   1.0029663626864280    0.4992474799518067    0.9984105633176463 Ni
   1.0028167660540968    1.0021129144533600    1.0009127434618192 Ni
  -0.0034704033350132    0.5005153766468202    0.4983504103916621 Ni
  -0.0029726322958267    1.0023195531277236    0.5012750351251452 Ni
   0.6525008612262031    0.4133607641892945    0.5874633211792281 O
   0.6714997897217907    0.0925236760988612    0.9118697399009716 O
   0.6807697343828302    0.9298666148530923    0.5938786231717951 O
   0.6714723381462514    0.5693929010143398    0.9066920038776104 O
   0.8465740604302368    0.6661660505504327    0.0838470446627453 O
   0.8368792890453429    0.3335224286287446    0.4151948724223926 O
   0.8155694485799211    0.1397667346254980    0.0899177815279618 O
   0.8153126759474196    0.8637848488267891    0.4116713621385000 O
   0.1839410413995141    0.1406806730357656    0.5900674526208876 O
   0.1856525597003341    0.8623912437101414    0.9119019808710105 O
   0.1521163263158327    0.6660092457458942    0.5839279940948988 O
   0.1625174291650155    0.3333381428957697    0.9149231211969254 O
   0.3269700469847687    0.5686367162181424    0.4060693878197874 O
   0.3306257524401777    0.0897808725859014    0.4130100946557891 O
   0.3211484018888973    0.9280877108192491    0.0929233326620164 O
   0.3443506054192376    0.4088401630263432    0.0881385567092217 O
