Na4 Ni4 O8
1.0
  -1.4834700000000001    2.6799930000000001    0.0170780000000000
  -1.2109680000000000   -2.5970979999999999    6.2935340000000002
   5.3786639999999997    5.4269530000000001    3.1919309999999999
Na Ni O
4 4 8
direct
   0.1250350000000001    0.8750869999999998    0.6250329999999999 Na
   0.3752469999999999    0.6250000000000000    0.8750620000000000 Na
   0.6248800000000000    0.3749740000000000    0.1249860000000000 Na
   0.8748770000000000    0.1249470000000000    0.3749330000000000 Na
   0.5001120000000000    0.5001619999999999    0.4998020000000000 Ni
   0.7499860000000000    0.2498920000000000    0.7502000000000000 Ni
   0.0002090000000000    0.0001650000000000    0.9997950000000000 Ni
   0.2496970000000000    0.7497800000000000    0.2502140000000000 Ni
   0.0416680000000001    0.4732470000000000    0.3285420000000000 O
   0.2922530000000000    0.2237750000000000    0.5789020000000000 O
   0.5419260000000000    0.9733430000000001    0.8285260000000000 O
   0.7922550000000000    0.7237339999999999    0.0789450000000000 O
   0.2082200000000001    0.2767420000000000    0.9214569999999999 O
   0.4576950000000000    0.0262000000000000    0.1710360000000000 O
   0.7080060000000000    0.7766830000000000    0.4214710000000000 O
   0.9579340000000000    0.5262680000000000    0.6710960000000000 O
