Na4 Fe8 O16
1.0
   5.1467315468243964    0.0000000148883016    0.0000000387035325
   0.0000000172880519    5.9761534069542259    0.0000279771239179
   0.0000001042485923    5.9513978302044794   11.5732380267724366
Na Fe O
4 8 16
direct
   0.9704173999812743    0.4999999661151842    0.2500000301395827 Na
   0.6447357121835543   -0.0000000067579173    0.7499999966233923 Na
   0.3552279147692580   -0.0000000268560522    0.2499999995846830 Na
   0.0296099319882973    0.4999999504957721    0.7499999989872824 Na
   0.9990905147068537    0.2403987874147359    0.0083117768646774 Fe
   0.0009700150266498    0.7596355451975698    0.9917171723121511 Fe
   0.9990901325252883    0.7596013324523770    0.4916882170164376 Fe
   0.0009700688850538    0.2403641660322348    0.5082830261842609 Fe
   0.4999957055422333    0.5000071458215192   -0.0000042716276635 Fe
   0.5000114200500313   -0.0000169047478972    0.0000076245017786 Fe
   0.4999957145847815    0.4999928458773936    0.5000042792848057 Fe
   0.5000114490944818    0.0000169135626976    0.4999923729829047 Fe
   0.8253132835350934    0.4123875678113506    0.5919705223188760 O
   0.8350913536158537    0.0971302164679919    0.9069242970511784 O
   0.8350915139409124    0.9028695393891170    0.5930757401236211 O
   0.8253133356926847    0.5876124410584570    0.9080293874672238 O
   0.6571510576915324    0.1693598247227621    0.0904820440697018 O
   0.6571511037854538    0.8306402470066624    0.4095179049467528 O
   0.6758453647713759    0.6598307827602846    0.0872821304711821 O
   0.6758453766083571    0.3401693781602764    0.4127179243175976 O
   0.3241404170416038    0.6600052194125966    0.5872031013485005 O
   0.3241403508477411    0.3399945738983853    0.9127968640603595 O
   0.3428902339101961    0.1692797631551392    0.5905358803881393 O
   0.3428902466666127    0.8307203135982555    0.9094640674950990 O
   0.1746508323287034    0.5876576249425913    0.4080102807879903 O
   0.1648497575023660    0.0970520808005992    0.4069156382210721 O
   0.1648498088068847    0.9029479651828873    0.0930843466766979 O
   0.1746506459974790    0.4123425211610908    0.0919897447734569 O
