Na14 Ca6 Ta14 Ti6 O60
1.0
   5.4947182318216656   -0.0000409435447840   -0.0000538677111227
  -0.0182136706781721    5.5776942796418156   -0.0000154578037724
  -0.0336098492482393   -0.0606180664544250   38.9944979895431274
Na Ca Ta Ti O
14 6 14 6 60
direct
   0.9966758814354835    0.0277993337858451    0.1487919332303805 Na
   0.9974248933876616    0.0161951398306683    0.3520282880161295 Na
   0.9965035616956882    0.0166989165604815    0.5518899296862655 Na
   0.9969649232361307    0.0162932825604210    0.7519881069393827 Na
   0.9936468280666839    0.0180797171902454    0.9525531365831307 Na
   0.5057248240036182    0.5176405317555701    0.3524564076354929 Na
   0.5055686878615571    0.5178714714788788    0.5524756956065779 Na
   0.5061602538449440    0.5175062243488492    0.7526330139800380 Na
   0.5035194564036812    0.5186315060624169    0.9529573418910340 Na
   0.4905188348463189    0.4776673749695396    0.0487501426362841 Na
   0.4996403029967613    0.4787420582296730    0.2479987503379331 Na
   0.4938999111529412    0.4748859338384595    0.6474417506316477 Na
   0.4938912073511913    0.4749747587773644    0.4473318925026069 Na
   0.4938792719946830    0.4741495910696506    0.8476148980655805 Na
   0.5168620111990829    0.5399633189318532    0.1492846533910524 Ca
   0.0117054213161810    0.9492861089571484    0.2477076907164306 Ca
   0.0086554433297475    0.9534518554558367    0.0486619317086183 Ca
   0.0075360098726573    0.9531003603601954    0.6473199245486457 Ca
   0.0076572384367687    0.9524428074092879    0.4472592561845473 Ca
   0.0075058669744096    0.9530736371877544    0.8474831071806422 Ca
   0.0004204638892880    0.4919682503227054    0.2995601592039200 Ta
  -0.0002522689022616    0.4934810075300205    0.5001613590071625 Ta
   0.0001002729445477    0.4936159299177404    0.7004478817130750 Ta
  -0.0008353425826098    0.4934060914710102    0.9004997411143352 Ta
   0.5055169376507190    0.0054878885474301    0.1000336826116204 Ta
   0.5049858148829413    0.9976801959751287    0.3006335845669511 Ta
   0.4981572286428391    0.9918850738912041    0.9997951518533841 Ta
   0.5032616136859226    0.9988499882005712    0.5002960312789040 Ta
   0.5029505105630284    0.9983209528161464    0.9003726239194654 Ta
   0.5035931973182280    0.9989338406277557    0.7002711535452317 Ta
   0.5084442682995453    0.0067836517384340    0.1996016321491972 Ta
   0.5023198189426824    0.9919087983627015    0.5994797350126979 Ta
   0.5027745410977166    0.9922711061466092    0.3996663543176148 Ta
   0.5027757949569711    0.9912406258441349    0.7995537116726444 Ta
   0.9934031556906061    0.4839516550181039    0.9992855738623446 Ti
   0.0063441092155575    0.4940527255461160    0.0970925948802473 Ti
   0.0174814965450959    0.4939619598112072    0.1973457655334298 Ti
   0.9983558591394271    0.4822046450843058    0.3988661971432698 Ti
   0.9975906792401470    0.4820556105466326    0.5994556213166894 Ti
   0.9982280114477484    0.4814044529305682    0.7996472569377152 Ti
   0.9303318213877605    0.5148930775018477    0.0508200988659209 O
   0.9301821560063722    0.5206199693949830    0.2504756438275568 O
   0.9310659075500169    0.5183430581101262    0.4502660673016071 O
   0.9310979011126765    0.5182975568154362    0.6503574421096310 O
   0.9308105112229409    0.5176133746833355    0.8504877676107209 O
   0.7790394647513200    0.7847598690591736    0.1926839567488403 O
   0.7827003589009253    0.7859892703345498    0.3943770352103342 O
   0.7829858120040438    0.7864377910010903    0.5945402912656244 O
   0.7723938166495354    0.7791980026004255    0.1075619295635418 O
   0.7907667671137846    0.7942615120459983    0.3063453987888047 O
   0.7833611728543789    0.7859367502363513    0.7946931840189497 O
   0.7807579164457512    0.7829760064260370    0.9949061842369149 O
   0.7886755922100512    0.7935426655584076    0.5062519970632310 O
   0.7887649804306540    0.7931869321549069    0.7064035476093101 O
   0.7896564728407296    0.7937111882870725    0.9064374551152302 O
   0.7084015017363768    0.2878871486970342    0.1090363369081262 O
   0.7083413229147242    0.2918057991426288    0.1913902792542543 O
   0.7082983609179272    0.2913844459651980    0.3075715725655747 O
   0.7223773550859796    0.2836444325791364    0.3930341086625022 O
   0.7074987519255874    0.2917363462828416    0.9081449898238581 O
   0.7226966267428730    0.2839129208968305    0.5932181889243999 O
   0.7082145839975517    0.2916699330697067    0.7079390343971125 O
   0.7235313210103248    0.2833951113656359    0.7933746255198711 O
   0.7078443867762648    0.2916351014798745    0.5078151325029698 O
   0.7231616364148984    0.2822661586531445    0.9932298378958324 O
   0.5806359613672322    0.0206937476093338    0.0504132080285931 O
   0.5834289103871623    0.0198012049213238    0.2499322452570731 O
   0.5794349031108820    0.0220604352782856    0.6504210244079931 O
   0.5796099669993392    0.0220309766919446    0.4502801909222652 O
   0.5792400393158219    0.0219441144300194    0.8505335961244382 O
   0.4280865413799198    0.9891963766479989    0.3496832280704485 O
   0.4221626449166817    0.9822444442623289    0.1500616149671058 O
   0.4276867841982522    0.9890781703130347    0.5498245157434754 O
   0.4281905013974163    0.9891312374564415    0.7499403301977842 O
   0.4276006341720164    0.9867327215454493    0.9499783969609519 O
   0.2727380421593082    0.7316084612517505    0.0090200216887479 O
   0.2733894631624442    0.7214589236447304    0.0926347105921458 O
   0.2785685959694980    0.7228637269151753    0.2076121421048081 O
   0.2746977810959234    0.7323308647126203    0.6084896058911986 O
   0.2833918601693279    0.7237049288369473    0.2911610984240953 O
   0.2746643883312116    0.7320732392123899    0.4082717724006060 O
   0.2810543348277164    0.7245755573736504    0.4912871893921724 O
   0.2748718009615998    0.7320393528228601    0.8086442382208094 O
   0.2809384214290986    0.7245112480167489    0.6914460039732100 O
   0.2814533234609728    0.7233195753841574    0.8915074071058793 O
   0.2062086759623782    0.2126400950375284    0.0918645554424732 O
   0.2166325991550475    0.2224432485728179    0.0083686548514878 O
   0.2103504945588270    0.2143166928916452    0.2084035612540302 O
   0.2162825151249039    0.2227975314868670    0.4080612157338644 O
   0.2165651969732835    0.2234534758105784    0.6082347040818606 O
   0.2095471982329384    0.2101019730375764    0.2911184891794229 O
   0.2078096571028560    0.2112329574763175    0.4913880972246324 O
   0.2077654105309064    0.2114114903573745    0.6915419956048819 O
   0.2071584867357707    0.2108873769110041    0.8917455082758436 O
   0.2170700362574478    0.2234595569691478    0.8084007645522810 O
   0.0812356926796442    0.4864837377016214    0.1509805549288424 O
   0.0707791744493969    0.4917447810116590    0.3499488838529748 O
   0.0704257556022115    0.4926590723730789    0.5500178233533674 O
   0.0709648605451500    0.4923448891734632    0.7501639614119850 O
   0.0706758281011336    0.4923248287695379    0.9502853248666825 O
