Na8 Fe4 P4 C4 O28
1.0
   6.5511009270450966   -0.0000012834554000   -0.0000000714308854
  -0.0000010253027442    5.2367869791542940    0.0016449691174705
  -0.0000002239038107    0.1491727289066155   17.9361127614892197
Na Fe P C O
8 4 4 4 28
direct
   0.2872590904026819    0.7629712641517902    0.0390038904948123 Na
   0.0144856321215072    0.2494989785797010    0.1328024571227313 Na
   0.5144856514969337    0.7505010254165412    0.3671975479133141 Na
   0.7872589616292249    0.2370289010812731    0.4609961026004655 Na
   0.2125381425169209    0.7630337706838121    0.5391395025617223 Na
   0.4858465799749930    0.2500010772757412    0.6328273102172233 Na
   0.9858466104659216    0.7499988881153858    0.8671726918308879 Na
   0.7125381426049047    0.2369660039031027    0.9608605255149076 Na
   0.7340196932718759    0.7794855192433040    0.1734161704494741 Fe
   0.2340195924849126    0.2205145257203927    0.3265837422569687 Fe
   0.7662459574979916    0.7794308747058297    0.6734912992437821 Fe
   0.2662460091746645    0.2205691658482406    0.8265087003467070 Fe
   0.2431632832364894    0.7182398400048240    0.2120902339163574 P
   0.7431632580342208    0.2817602473635636    0.2879097771119971 P
   0.2572548979199439    0.7181112996696725    0.7120408490355790 P
   0.7572548862566616    0.2818887209549085    0.7879591593119540 P
   0.7633572683135978    0.7248811169678525    0.0342149100568327 C
   0.2633571042217979    0.2751188375916612    0.4657850576516199 C
   0.7365085356500303    0.7251002613354894    0.5342376769490096 C
   0.2365090733740178    0.2748996579935804    0.9657622416182841 C
   0.2280677835430762    0.3076154172606458    0.0356188199102162 O
   0.7539307607048875    0.9525250014577241    0.0642596779203786 O
   0.7561175777451806    0.5333899246949753    0.0820666479808768 O
   0.0551877057398235    0.7838112477520256    0.1628979305994286 O
   0.4312412243095965    0.7691627177299193    0.1616067880347953 O
   0.7536046084664202    0.1220722973765550    0.2162125548470307 O
   0.2325577312596628    0.4309310622803206    0.2351615567876611 O
   0.7325578401909882    0.5690689804552499    0.2648384462273456 O
   0.2536047041254673    0.8779276865923273    0.2837874743993009 O
   0.5551877097577619    0.2161888313842236    0.3371021011427723 O
   0.9312412382200260    0.2308372519015642    0.3383932210906663 O
   0.2561173816803459    0.4666098174809422    0.4179333173777157 O
   0.2539307745038765    0.0474749039419554    0.4357402831402445 O
   0.7280675112769188    0.6923844993700662    0.4643812966206483 O
   0.2715964231138758    0.3084694461263630    0.5356536074757026 O
   0.7461889833405987    0.9525432271744046    0.5644534645647556 O
   0.7441830352835473    0.5332251192666911    0.5819854604734211 O
   0.0691236873305617    0.7688366989161001    0.6615704445934247 O
   0.4451903233899735    0.7839936922263832    0.6628508037535557 O
   0.7465628996198831    0.1218845567553817    0.7163261270750282 O
   0.2681322173284256    0.4308755493587756    0.7350892245306164 O
   0.7681322256979005    0.5691244939259679    0.7649107619196206 O
   0.2465630257261246    0.8781154861624009    0.7836738815369448 O
   0.5691236794168145    0.2311633031626717    0.8384295703700191 O
   0.9451902682451977    0.2160062185238575    0.8371491547213377 O
   0.2441826948440927    0.4667749182905618    0.9180145848839752 O
   0.2461891115086190    0.0474568402762823    0.9355465656543080 O
   0.7715964028249634    0.6915304037917109    0.9643463947029565 O
