Na4 V4 O12
1.0
   3.6593629999999999    0.0000000000000000    0.0000000000000000
   0.0000000000000000    5.4902980000000001    0.0000000000000000
   0.0000000000000000    0.0000000000000000   14.5975149999999996
Na V O
4 4 12
direct
   0.2500000000000000    0.8883160000000000    0.3272430000000001 Na
   0.7500000000000001    0.1116840000000000    0.6727570000000000 Na
   0.7500000000000001    0.3883160000000000    0.1727570000000000 Na
   0.2500000000000000    0.6116839999999999    0.8272430000000000 Na
   0.7500000000000001    0.0732160000000000    0.9148610000000000 V
   0.2500000000000000    0.9267839999999999    0.0851390000000000 V
   0.2500000000000000    0.5732159999999999    0.5851390000000000 V
   0.7500000000000001    0.4267839999999999    0.4148610000000000 V
   0.2500000000000000    0.4092999999999999    0.6836010000000000 O
   0.7500000000000001    0.1313500000000000    0.3882660000000000 O
   0.2500000000000000    0.4957940000000000    0.4483480000000001 O
   0.7500000000000001    0.5042060000000000    0.5516520000000000 O
   0.7500000000000001    0.3686500000000000    0.8882660000000000 O
   0.7500000000000001    0.9957940000000000    0.0516520000000000 O
   0.7500000000000001    0.5907000000000000    0.3163990000000000 O
   0.7500000000000001    0.9092999999999999    0.8163990000000000 O
   0.2500000000000000    0.8686500000000000    0.6117340000000000 O
   0.2500000000000000    0.6313500000000000    0.1117340000000000 O
   0.2500000000000000    0.0907000000000000    0.1836010000000000 O
   0.2500000000000000    0.0042060000000000    0.9483480000000001 O
