Na4 Mn4 P4 C4 O28
1.0
   6.2325866328966670    0.0001421369619513    0.0000829793264814
  -0.2410926820425519   10.4092894267794431    0.0004439050546470
  -0.0122950746884189   -4.7925556859461631    9.2892340408724827
Na Mn P C O
4 4 4 4 28
direct
   0.9553708774151641    0.7661253513470279    0.7587406808136626 Na
   0.5558579865454472    0.7639894927579721    0.2591276115305099 Na
   0.0390538650349435    0.2302873849933168    0.7356809272345287 Na
   0.0406388897274827    0.2326083828915206    0.2365767513276921 Na
   0.2498112945865345    0.6535669234309643    0.9336423049413975 Mn
   0.2497025682365815    0.6537870338000591    0.4341915426991949 Mn
   0.7351019002545640    0.3466482019498905    0.5672510960358399 Mn
   0.7379193484429443    0.3462939694124855    0.0664626064672421 Mn
   0.7471701366504511    0.5642247871252334    0.9216097044732680 P
   0.7522476966630939    0.5642245186687995    0.4218380762064744 P
   0.2412586379549662    0.4357409491939055    0.5791605452647615 P
   0.2430014143150108    0.4356184378522671    0.0786343986793061 P
   0.2522455337425884    0.9104306115074431    0.0941560618932187 C
   0.2627073663075858    0.9108037482036373    0.5946221705810875 C
   0.7502739316105737    0.0907151229794964    0.4055984599037645 C
   0.7430286349261563    0.0896735305508135    0.9057139318095995 C
   0.7638564537051011    0.9613247370220325    0.3220141617404407 O
   0.7519606434774880    0.9598799928863585    0.8225333147565712 O
   0.2462214211879659    0.8511470513173658    0.9518999675923709 O
   0.2730069569661207    0.8513658255543066    0.4525540572824978 O
   0.2630291211042855    0.8065262905033845    0.1349090120080241 O
   0.2576635393031647    0.8066818382437734    0.6355560389751218 O
   0.9415311444667738    0.6659905469027404    0.9331201536273362 O
   0.5556885003745015    0.6619979074217233    0.9371156903074050 O
   0.9449282817683299    0.6715934746184237    0.4476024759580484 O
   0.5590674375891969    0.6562648486000544    0.4243197793483941 O
   0.7463100262290898    0.5262066854879418    0.5496725282845405 O
   0.2383768034241133    0.5758321305095478    0.7219256952849006 O
   0.7482456232956141    0.5267001511722882    0.0498502335204287 O
   0.2464373047444792    0.5753619655329524    0.2219353108755978 O
   0.7488093590747100    0.4243050474401524    0.7785601219926946 O
   0.2344786355540575    0.4731231540211975    0.9505393220442155 O
   0.7663119521114223    0.4257461287687446    0.2783773163090178 O
   0.2337850024490109    0.4729695910243841    0.4508449812918598 O
   0.4313257628747774    0.3381194109979525    0.5663403180034203 O
   0.0458438326461035    0.3339650461727789    0.5665699348886092 O
   0.4342987427087264    0.3386560972645212    0.0663728303303016 O
   0.0487506831947365    0.3326426884302456    0.0641314025513751 O
   0.7451164863411490    0.1954325833628227    0.3656249648941370 O
   0.7409066672230393    0.1941119124884070    0.8651776039242357 O
   0.7402515516420520    0.1483020560115151    0.5475455420887150 O
   0.7376387665843792    0.1485255373160364    0.0478938791525761 O
   0.2479459081341245    0.0405343623050576    0.1769410315360566 O
   0.2538025330017910    0.0408875016298160    0.6769201896616540 O
