Na6 V6 O16
1.0
   5.6257619999999999    0.0009230000000000   -0.0016640000000000
   2.8114690000000002    4.8507860000000003    6.8738520000000003
   2.8099699999999999   -4.8846309999999997    6.8978580000000003
Na V O
6 6 16
direct
   0.5016330000000000    0.4963060000000001    0.5002980000000000 Na
   0.9984570000000001    0.0038150000000001    0.9996620000000001 Na
   0.8308090000000001    0.5043370000000001    0.8341840000000001 Na
   0.3299210000000000    0.0033580000000000    0.3360880000000000 Na
   0.1699149999999999    0.4966690000000000    0.1639450000000001 Na
   0.6690849999999997    0.9957140000000001    0.6658350000000002 Na
   0.7500299999999999    0.2499790000000000    0.2499320000000000 V
   0.1128190000000000    0.2204400000000000    0.5537590000000000 V
   0.3872549999999998    0.2795090000000001    0.9462880000000001 V
   0.2500360000000000    0.7499340000000000    0.7499490000000000 V
   0.6134429999999998    0.7201749999999999    0.0530730000000001 V
   0.8864879999999999    0.7797760000000001    0.4469560000000002 V
   0.9906450000000000    0.3423970000000001    0.6757980000000000 O
   0.4919379999999997    0.8418700000000000    0.1750040000000001 O
   0.0079409999999999    0.6580900000000001    0.3249480000000001 O
   0.5092320000000001    0.1575310000000001    0.8241759999999999 O
   0.4102900000000000    0.7556230000000000    0.9215120000000000 O
   0.9095600000000000    0.2563620000000000    0.4221580000000000 O
   0.6626309999999997    0.5029120000000000    0.1714120000000000 O
   0.1613819999999999    0.0040060000000000    0.6726770000000000 O
   0.0886920000000000    0.2435530000000000    0.0776970000000000 O
   0.5873019999999999    0.7447240000000001    0.5785200000000001 O
   0.9126210000000000    0.7553140000000002    0.9215030000000001 O
   0.4112920000000000    0.2565390000000000    0.4222740000000000 O
   0.3385830000000001    0.4959530000000000    0.8273850000000000 O
   0.8372870000000000    0.9970599999999999    0.3286280000000002 O
   0.5904309999999999    0.2436480000000000    0.0778850000000000 O
   0.0896829999999999    0.7444100000000000    0.5784550000000002 O
