Na12 Cu4 O12
1.0
   9.3765211252083063    0.0000003779030342    0.0000000184555898
   0.0000003779030258    9.3765256980476739    0.0000000135347459
   0.0000000087226855    0.0000000063969436    4.4318047968228118
Na Cu O
12 4 12
direct
   0.3663886972243685    0.1261493775609383    0.4999956162487730 Na
   0.6261493338846890    0.1336106831643975   -0.0000051442133456 Na
   0.1511035459584295    0.1511035209424631   -0.0000001337652088 Na
   0.6511035304545534    0.3488965045477184    0.5000001381462847 Na
   0.1261493284495918    0.3663893199217790    0.5000051480487427 Na
   0.8663886833938595    0.3738506357740893    0.0000043809299480 Na
   0.1336113064851529    0.6261493776124556    0.0000043840756895 Na
   0.8738506768970972    0.6336106997239070    0.5000051446129243 Na
   0.3488964649924663    0.6511035061285934    0.5000001419096797 Na
   0.8488964769816966    0.8488964966906709   -0.0000001359855368 Na
   0.3738506749837688    0.8663893043971376   -0.0000051428509746 Na
   0.6336113245723568    0.8738506243158234    0.4999956139847956 Na
   0.8913054967241203    0.1086951779534041    0.5000002371587937 Cu
   0.3913055638515787    0.3913048740111682   -0.0000003203020982 Cu
   0.6086944226972301    0.6086951154075996   -0.0000003990867629 Cu
   0.1086944774626643    0.8913047994400584    0.5000002265426838 Cu
   0.0937381359843811    0.0937390059499780    0.5000003488989413 O
   0.6942687974948655    0.1060297872981180    0.5000244511632069 O
   0.3939713870966469    0.1942645978361663    0.0000243375208872 O
   0.8939714082478872    0.3057353678769124    0.4999756757744018 O
   0.1942687911239121    0.3939702179033306   -0.0000244944496564 O
   0.5937381389309380    0.4062610327918317   -0.0000003102022756 O
   0.4062618403958898    0.5937390049232801   -0.0000003517985511 O
   0.8057312199952917    0.6060297690074983   -0.0000244782093723 O
   0.1060286194585998    0.6942646047180058    0.4999756552694919 O
   0.6060285944607934    0.8057353856992476    0.0000243778457485 O
   0.3057312015595017    0.8939702314381636    0.5000244772586044 O
   0.9062618245096498    0.9062610280210359    0.5000003417539624 O
