Na1 Mn1 I1 O6
1.0
  -2.5465582079833307   -4.4107681114421027    0.0000002707088762
  -2.5465581660295311    4.4107680872200579    0.0000004380842117
   0.0000007479815995   -0.0000001019770393   -5.3746175881012928
Na Mn I O
1 1 1 6
direct
   0.6666670073419180    0.3333329926561454    0.5000000000094348 Na
   0.3333329738732757    0.6666670248941647   -0.0000000004387279 Mn
  -0.0000000769358601    0.0000000815429584   -0.0000000002127873 I
   0.0412799984104742    0.3290362819019811    0.8003120773923874 O
   0.2877557396207217    0.9587199853814657    0.8003112987746451 O
   0.2877564396870911    0.3290359691428593    0.1996880700552932 O
   0.6709640315284087    0.7122435723102383    0.8003119391424254 O
   0.6709637222948217    0.9587199981680530    0.1996879176656579 O
   0.0412800075563086    0.7122442628187823    0.1996887077476256 O
