Na4 V4 F16
1.0
   5.4405310000000000    0.0000000000000000    0.0000000000000000
   0.0000000000000000    7.7309799999999997    0.0000000000000000
   0.0000000000000000    1.8104929999999999    7.9545260000000004
Na V F
4 4 16
direct
   0.2178790000000000    0.8941160000000001    0.3758520000000000 Na
   0.7178789999999999    0.6058840000000000    0.6241480000000000 Na
   0.7821210000000000    0.1058840000000000    0.6241480000000000 Na
   0.2821210000000000    0.3941160000000000    0.3758520000000000 Na
   0.7473289999999999    0.7022800000000000    0.1748770000000000 V
   0.2473290000000000    0.7977200000000001    0.8251229999999999 V
   0.2526709999999999    0.2977200000000000    0.8251229999999999 V
   0.7526710000000000    0.2022800000000000    0.1748770000000000 V
   0.8571630000000000    0.9513230000000000    0.1780050000000000 F
   0.3571630000000000    0.5486770000000000    0.8219949999999999 F
   0.1428370000000000    0.0486770000000000    0.8219949999999999 F
   0.6428369999999999    0.4513230000000000    0.1780050000000000 F
   0.4661450000000000    0.7938150000000000    0.0221570000000000 F
   0.9661459999999999    0.7061850000000001    0.9778430000000000 F
   0.5338550000000000    0.2061850000000000    0.9778430000000000 F
   0.0338550000000000    0.2938150000000000    0.0221570000000000 F
   0.5274360000000000    0.6881360000000001    0.3644950000000000 F
   0.0274360000000000    0.8118640000000001    0.6355050000000000 F
   0.4725640000000000    0.3118640000000000    0.6355050000000000 F
   0.9725639999999999    0.1881360000000000    0.3644950000000000 F
   0.0126090000000000    0.6267390000000002    0.3274800000000000 F
   0.5126090000000000    0.8732610000000001    0.6725199999999999 F
   0.9873910000000000    0.3732610000000000    0.6725199999999999 F
   0.4873910000000000    0.1267390000000000    0.3274800000000000 F
