Na1 V6 O15
1.0
   1.8285284729637317    7.9419701071286379   -0.0004278867162116
  -1.8285852023016229    7.9419831699821835   -0.0004237854631866
  -0.0000139429674643    0.8933295745991534    9.5865826052814942
Na V O
1 6 15
direct
   0.0721368223060675    0.0720463179133972    0.4186361073640462 Na
   0.3132691085924621    0.3136321832740132    0.9115368695509852 V
   0.6835168562811959    0.6830600750803474    0.1143310276359139 V
   0.1125670177027118    0.1125409151630830    0.8726169771308626 V
   0.9175041866405846    0.9177911994201710    0.1069940718532083 V
   0.3910153902268410    0.3917450937879987    0.5889961011792745 V
   0.7798399571197653    0.7800035087330315    0.4207538613938228 V
   0.0123700435781830    0.0123121055529219    0.0002066292998382 O
   0.8181540111520885    0.8183040040593750    0.9594927519469416 O
   0.2045788628188284    0.2042003339670778    0.0698857638463789 O
   0.6292767965651481    0.6287789449968390    0.9288526827374960 O
   0.3851989817689410    0.3856291498224995    0.0782267159121273 O
   0.3999768457056220    0.3998922249839494    0.7730507792649687 O
   0.6025120817983896    0.6025410245583557    0.2317510999107839 O
   0.2311139514967648    0.2312596787877949    0.8019931709843442 O
   0.7726603293445479    0.7730069137882777    0.2377569746543056 O
   0.0746746206644740    0.0742923025414705    0.7239012860110343 O
   0.9432296701975063    0.9432396124735910    0.2680128308493489 O
   0.3132680235156972    0.3131211997980317    0.4390736884427384 O
   0.8556737422551933    0.8555278475762658    0.5791860708364948 O
   0.4881725735862139    0.4878176507670826    0.5156018568644787 O
   0.6815154681422823    0.6812362239970499    0.4851467082577803 O
