Na4 Fe2 Si2 C2 O14
1.0
   6.5112499026736677   -0.0000006606742549    0.0000002575394843
  -0.0000005371057800    5.2928369790866867    0.0001040517749333
   0.0000003529679196    0.1117795702048315    9.2098010926475293
Na Fe Si C O
4 2 2 2 14
direct
   0.5062007644400551    0.7636981612265722    0.7622616209929666 Na
   0.9936571570763557    0.7636410737191970    0.7621296191057632 Na
   0.4936572411732484    0.2363589578903698    0.2378704126615601 Na
   0.0062007514670170    0.2363018935115108    0.2377384141609674 Na
   0.2500331161916293    0.2087812898393009    0.6396583606957633 Fe
   0.7500331022865637    0.7912185882844258    0.3603416147617281 Fe
   0.7498661395579417    0.2936352048976741    0.5695297956164442 Si
   0.2498661506545964    0.7063645003916448    0.4304703217306778 Si
   0.2500575707567433    0.2750594381546073    0.9224102560468677 C
   0.7500576129190760    0.7249414991025190    0.0775895843388709 C
   0.7499662574699458    0.7129615206400906    0.9404522470761237 O
   0.2500715367473104    0.0578967057750300    0.8567173161604619 O
   0.2499362367098866    0.4712693216589552    0.8367417838023811 O
   0.9518089783635297    0.2201754714198349    0.6677669543350109 O
   0.5483542344247997    0.2197444947184854    0.6677835902081281 O
   0.2501174219628771    0.8521040995532622    0.5862882647562341 O
   0.7500344568980922    0.6052351577865139    0.5398690187293128 O
   0.2500341379379835    0.3947645681045843    0.4601309413498579 O
   0.7501177377072672    0.1478959456110036    0.4137118201584709 O
   0.4518093257184402    0.7798249295331897    0.3322337615979329 O
   0.0483553471165335    0.7802558617670294    0.3322158231870804 O
   0.7499363564488074    0.5287316659765322    0.1632579160697192 O
   0.7500713007061681    0.9421046062060784    0.1432829340901514 O
   0.2499662932616519    0.2870386602237617    0.0595477717598517 O
