Na18 Nb9 In15 P36 O144
1.0
  17.8690787450809587   -0.0045963637034018   -0.0041527419907563
  -4.4692591316665160    7.7414748895437286   -0.0021270058179795
  -0.0052481431800495   -0.0095287015915270   22.7735264634028418
Na Nb In P O
18 9 15 36 144
direct
   0.6788966082331358    0.3776666415286742    0.2364069903976750 Na
   0.0019515776171494    0.6361227200004446    0.2463754087639796 Na
   0.0110172976754515    0.3778394498722132    0.7347391707905054 Na
   0.5106656852522122    0.3783780067443098    0.7363697853136661 Na
   0.1718445398636853    0.9710288132198251    0.7314390149155289 Na
   0.6720689832611320    0.9726789857940278    0.7320196972531731 Na
   0.0021720026023273    1.0084575720650237    0.5060142264529535 Na
   0.5022811946539276    1.0028250401099055    0.5064711097303228 Na
   1.0017832300812668    0.9966113788065214    0.0077927266800655 Na
   0.4981345408764651    0.0023475973907657    0.0073604937593103 Na
   0.3310343794333945    0.3422492444584697    0.8355045150358876 Na
   0.8307617466742313    0.3426778639215340    0.8369823314820029 Na
   0.3310028732789447    0.3311587785584071    0.3403789420809469 Na
   0.8294372628178174    0.3159636088573459    0.3366897682622404 Na
   0.1795190229317429    0.6577852096393634    0.1706617953696156 Na
   0.7038294007553819    0.7852437979414645    0.1710140760964101 Na
   0.2446071284050662    0.6715045556753255    0.6793362180536422 Na
   0.7429195073750962    0.6718791605508455    0.6774520387081314 Na
   0.0016163573842161    0.0060816329055805    0.3549956543055383 Nb
   0.4959146914929369    0.9957213357974607    0.3557466500213301 Nb
   0.9974235536856116    0.9956633598441144    0.8599982377384939 Nb
   0.4989831639335991    0.9967552650668423    0.8596480218226895 Nb
   0.3337552784500389    0.3346193049278183    0.1866404177594470 Nb
   0.1665248069920257    0.6678737455008240    0.0211706946757894 Nb
   0.6642057507295689    0.6603365237358314    0.0199179177991636 Nb
   0.1640391862516064    0.6671667815381056    0.5180463503093479 Nb
   0.6656462608231464    0.6689495665024199    0.5179585210943208 Nb
   0.9976092709691090    0.9988086426956345    0.6475682281258652 In
   0.4976088515803382    0.9967692266898719    0.6472051650118712 In
   0.9981758500211130    0.0016344816260195    0.1470725594564150 In
   0.4998703823667081    0.9960436319407198    0.1473708753412178 In
   0.3336466769424379    0.3394726043485206    0.6817943103330848 In
   0.8329288148230329    0.3407683983832030    0.6821403836340302 In
   0.8326370804921597    0.3235488815068414    0.1842500451093944 In
   0.3325330594292222    0.3308215556250663    0.9796707741756950 In
   0.8331346192928856    0.3320546166097303    0.9828628728291032 In
   0.3326829273727548    0.3324851389632786    0.4826009281507640 In
   0.8325363502033990    0.3328556638273069    0.4810170063008553 In
   0.1693733493886869    0.6658994700310162    0.3143089011134709 In
   0.6660812341431130    0.6721444440078567    0.3158164517559199 In
   0.1667608329100345    0.6668830488761571    0.8195783106573912 In
   0.6679461126130928    0.6661737813522193    0.8191658112940253 In
   0.1467261652572270    0.0034978048054200    0.2499514098986365 P
   0.6455725099631300    1.0059880010965097    0.2502644415001615 P
   0.3546277915853194    0.7030877767457799    0.2495754912289216 P
   0.8533446644356494    0.7097865704574601    0.2488857617055762 P
  -0.0017729477714340    0.2932864120739779    0.2497599014072545 P
   0.4971718124787778    0.2859393775224900    0.2509290800886294 P
   0.1451466822738674    0.2848379440067657    0.7550563376345079 P
   0.6452819243647818    0.2858198370484205    0.7535514029245260 P
   0.9948278725860131    0.7052305477741815    0.7548468980512514 P
   0.4951645979483359    0.7048799240322846    0.7545939774858165 P
   0.3549027682554785    1.0017478899548269    0.7529389388259681 P
   0.8549237280874509    1.0029704123427245    0.7526100855032918 P
   0.4822178993977119    0.3339996537213633    0.5835426183184561 P
   0.9801780289682120    0.3334012774430342    0.5831532641291585 P
   0.1838814828543734    0.0391030568759184    0.5828871431922230 P
   0.6847991406118946    0.0388411555130202    0.5827825448911907 P
   0.3335601895766847    0.6337091146815701    0.5793490287831710 P
   0.8358818864978185    0.6342499673448927    0.5786407891010209 P
   0.4793683967947154    0.6229997094308271    0.0809369717549037 P
   0.9803816813735787    0.6292904108857825    0.0854155931100626 P
   0.3309619795736146    0.0401455126719495    0.0816202027476011 P
   0.8343922212822467    0.0345036672045903    0.0801359516499183 P
   0.1884192343884487    0.3380467004817487    0.0825029305451372 P
   0.6827500390233689    0.3249933247230605    0.0824116629904319 P
   0.3144841692810594    0.6706715770629973    0.9187278564412952 P
   0.8124697050230615    0.6640549845905205    0.9161386754762564 P
   0.0205835201454471    0.3725153442040998    0.9158318949557609 P
   0.5167425564390791    0.3700245256723624    0.9132801352990149 P
   0.1644308601538269    0.9600072591271444    0.9155088701080392 P
   0.6670286848815988    0.9611819887987969    0.9159648111303896 P
   0.3109473107419427    0.9592484403938016    0.4138414396558545 P
   0.8142320050005390    0.9604920861761918    0.4138498761681799 P
   0.1671024532632146    0.3734190139493169    0.4152897444167929 P
   0.6656621050780231    0.3737750704733607    0.4117030857136532 P
   0.0184733524144470    0.6635359319033284    0.4099593022583295 P
   0.5187677668980567    0.6671888140715283    0.4144090571412774 P
   0.1032786798378948    0.0249111289315076    0.3071334307626762 O
   0.5886702519908055    0.0149572015866057    0.3026007517370164 O
   0.4081494328324821    0.7946306540374012    0.3063071978468735 O
   0.9138723674451107    0.8206508106225842    0.3021700689295586 O
   0.4803491601045054    0.1681938108960288    0.3062829644817081 O
   0.9982321796731586    0.1847654375160101    0.3053310886697893 O
   0.0954956780252333    0.1748554683784619    0.8114593957212077 O
   0.5949953970055282    0.1762611958129353    0.8097052121631135 O
   0.4903095628752257    0.8030093287843607    0.8114355403678634 O
   0.9903213248580234    0.8031889829450368    0.8119226950765739 O
   0.4110652707475116    0.0088129288131770    0.8078763491513539 O
   0.9114474254215095    0.0095087877067624    0.8074262759054199 O
   0.3876838785347592    0.9575983767010221    0.6972296392018177 O
   0.8877072453158734    0.9603901248735794    0.6965961308793324 O
   0.0831850408393145    0.2106632409836755    0.7028086182881161 O
   0.5853801747499783    0.2091885919121804    0.7005077798241920 O
   0.0163929344644181    0.8274542760329789    0.7027909370769878 O
   0.5159504153328474    0.8255165675782438    0.7022195687697340 O
   0.3966829098430153    0.8047982988632428    0.1946615741437093 O
   0.8927500862331785    0.8011197867452591    0.1914268920636648 O
   0.0001975513696435    0.2049065543322328    0.1936897715885694 O
   0.5176683003287400    0.2084676863096885    0.1982889208073969 O
   0.0898302045507649    0.9777146924614090    0.1973362063735770 O
   0.6003270205954405    0.9853934803956511    0.1917378884913954 O
   0.4512081841198808    0.3696394371404103    0.6431473135702220 O
   0.9493501108419706    0.3696744112423173    0.6426782349725240 O
   0.2350848908508594    0.1016800726901862    0.6417652868390217 O
   0.7348556471192399    0.1031156295763086    0.6420298345281866 O
   0.3168349018028281    0.5325513591179611    0.6381771499436129 O
   0.8179729384334111    0.5348526042992392    0.6378720268409075 O
   0.4311249874745997    0.5067075940428205    0.1367221499924711 O
   0.9504966051984141    0.5335145830013784    0.1450887373185300 O
   0.3200858799648515    0.1399618162450713    0.1355258633985989 O
   0.8144402048862146    0.0974429340023841    0.1384090813135393 O
   0.2468755089302009    0.3611474408291814    0.1382822111821539 O
   0.7330278431152001    0.3613227978746180    0.1411191243672629 O
   0.2271641256146157    0.3105489569331792    0.0276264419867483 O
   0.7240739480126140    0.2876407313337564    0.0307055735860312 O
   0.4279622582896112    0.5413334725335359    0.0258826354023985 O
   0.9173117814392165    0.5418280297084465    0.0356083852670037 O
   0.3456589659475495    0.1405887763374271    0.0252028574991462 O
   0.8504306375524648    0.1479696387370641    0.0271832219798645 O
   0.2239611397198373    0.1665706962121953    0.5329393501645184 O
   0.7245853378840309    0.1661034759082959    0.5327223300041111 O
   0.3520040266016125    0.5546608363513447    0.5268595339191449 O
   0.8575852084027408    0.5564280162915120    0.5272006761293426 O
   0.4183817711635625    0.2927000171255966    0.5339767113580913 O
   0.9156723811870897    0.2862226424685205    0.5336586717700406 O
   0.2681687475509829    0.6912331554452432    0.9740705591651111 O
   0.7606647599961240    0.6835588543569598    0.9678135760524111 O
   0.0854694062295818    0.4742271305126610    0.9670494547896971 O
   0.5756069716146074    0.4735938521285546    0.9663863544198137 O
   0.1585538774329210    0.8405370838669844    0.9682429050256028 O
   0.6550944511766975    0.8401808978201644    0.9688585067420631 O
   0.2632911748688318    0.8368906157025338    0.4664227913280341 O
   0.7658868061931505    0.8381696299965407    0.4664454741501917 O
   0.1553389065298541    0.4674424435672887    0.4693018745762350 O
   0.6527266566721620    0.4733889003946772    0.4634494666104734 O
   0.0813940240951211    0.6881356501319473    0.4617827663617968 O
   0.5797264791305168    0.6956699420751993    0.4678392235961426 O
   0.0549790596776965    0.6466923171399402    0.3510302037058773 O
   0.5580071230685480    0.6502203061487328    0.3577238200301253 O
   0.2631359173867043    0.8877749038594013    0.3563122084602867 O
   0.7678559591246568    0.8849910855124637    0.3563325192119687 O
   0.1748803325373195    0.4691511533271315    0.3586874121642640 O
   0.6765554245104629    0.4655685225303592    0.3530661551341072 O
   0.0582570066768361    0.4550527324254127    0.8564006514949749 O
   0.5571965993699879    0.4556359294959455    0.8547519593413639 O
   0.1670762874782265    0.8806591998936261    0.8569916795521616 O
   0.6710381696926517    0.8809652102275258    0.8577489987714642 O
   0.2680171904439802    0.6674855064498636    0.8627991025833629 O
   0.7684914506017122    0.6497995205847708    0.8576797269145463 O
   0.0120775732901491    0.8337865729518321    0.4075358666848127 O
   0.5115420588818075    0.8371617768209754    0.4107807095686064 O
   0.4018539533565111    0.9685943494093976    0.4101766383124394 O
   0.9068068188490293    0.9765720501915697    0.4101740432177294 O
   0.0818842364011888    0.1891578463980177    0.4119752577444608 O
   0.5790988087057941    0.1909393440021151    0.4078546740026956 O
   0.0102333620810071    0.1862853510759854    0.9150532366442534 O
   0.5106732735974840    0.1874801205929434    0.9140274590497420 O
   0.0785675466681356    0.9699366902694427    0.9169305198253976 O
   0.5827047326627807    0.9779766749007441    0.9139853897589273 O
   0.4070448938548863    0.8386638826666701    0.9169046516394680 O
   0.9033344825467711    0.8365195753701445    0.9152674387538646 O
   0.5053750603486655    0.1908581514241485    0.5879369224960259 O
   1.0064141019036703    0.1949359043243443    0.5886695356415406 O
   0.0892422623973664   -0.0083622873781912    0.5893978299261101 O
   0.5894572522944244   -0.0127801338369768    0.5887623907168252 O
   0.4059567008436327    0.8222959920353196    0.5851764468748365 O
   0.9061875412743434    0.8243544718374417    0.5848843041326249 O
   0.4947113869101023    0.8055531354376099    0.0871015033338464 O
   0.0067292754719665    0.8202705245317781    0.0878066884753809 O
   0.4037115398953780    0.0012185206847991    0.0910181209449196 O
   0.9078464648261240   -0.0062338308947955    0.0838039824640954 O
   0.0961924193532319    0.1914838177083348    0.0899530145063029 O
   0.5879742980730979    0.1811270763857391    0.0858203589471624 O
   0.3606446232345922    0.1804854802909129    0.7504050270862911 O
   0.8606543003079252    0.1815893878723574    0.7508801628248056 O
   0.2274860432967233    0.2701598997395889    0.7497094523777683 O
   0.7285346672588023    0.2737297931712974    0.7499164724430869 O
   0.4098720986241945    0.5311986245640952    0.7508073795919681 O
   0.9092657730977255    0.5325983181872204    0.7510189492648827 O
   0.3505569960631436    0.5218147753062062    0.2447748098288964 O
   0.8499127601966757    0.5327086653192638    0.2520727463649796 O
   0.4124407138761886    0.2951265805069049    0.2404429015925420 O
   0.9154297591841902    0.3084622985754504    0.2540301501743102 O
   0.2372820003592530    0.1717890772093011    0.2427930226509622 O
   0.7311336487937188    0.1827797038619892    0.2526884994031577 O
   0.3249041895746776    0.5121322637251619    0.9206974096379805 O
   0.8267022554993747    0.5111134738787025    0.9225691744453561 O
   0.4263655917172045    0.3458874316600377    0.9166604120538419 O
   0.9331526615898130    0.3593085072337444    0.9229553519241233 O
   0.2418788416248296    0.1413104882400096    0.9195287823526792 O
   0.7459201804326250    0.1410447266234373    0.9203249428271735 O
   0.3265818884763467    0.1416876135982007    0.4218785695792385 O
   0.8263418151780191    0.1405404654999625    0.4213864275577773 O
   0.2441244061051357    0.3453997680721206    0.4206465947316914 O
   0.7411631316379539    0.3426351954612238    0.4204837843359738 O
   0.4289009288189178    0.5111987126210112    0.4213864872406813 O
   0.9288328918050355    0.5073859954556066    0.4182843583860846 O
   0.1858945564885182    0.5125515822061577    0.0778093874879680 O
   0.6788805327944231    0.4968557109512706    0.0681301988669579 O
   0.0685710408721949    0.6293620045579132    0.0696424300088861 O
   0.5696268985660038    0.6316442464541532    0.0762403987574577 O
   0.2429963502379425    0.8624908491657682    0.0770496108879188 O
   0.7478688686271122    0.8521969973075600    0.0699146426420734 O
   0.1816908435185015    0.8639421215772064    0.5667874251505437 O
   0.6854173159333019    0.8651333486102440    0.5678193042508285 O
   0.2466073314846277    0.6397398638985184    0.5705953893951314 O
   0.7479010020429847    0.6344437945368845    0.5675775969252050 O
   0.0665032592660909    0.5078474486197614    0.5670043583577873 O
   0.5701348375191290    0.5058857185982694    0.5681203464907837 O
   0.1581458164956199    0.8443278235248642    0.2529248667208973 O
   0.6612337102230360    0.8542797430673997    0.2569682906952815 O
   0.2623007927012226    0.6699415582872934    0.2530974162818542 O
   0.7609758549048286    0.6820962778288796    0.2523740376155393 O
   0.0781043059259923    0.4773401959034636    0.2508888401185593 O
   0.5737081015082441    0.4676441988005539    0.2586859880422003 O
   0.1665189297243430    0.4746156960408062    0.7596296354308606 O
   0.6644273253937213    0.4742906259076326    0.7571421511183997 O
   0.0716412163612842    0.6713664905501601    0.7594602566703885 O
   0.5726559911899569    0.6735126775607553    0.7594730515912735 O
   0.2593296762045793    0.8570589522440262    0.7586233751654260 O
   0.7596766426004757    0.8574483321335687    0.7581658612299046 O
