Na3 Ti1 Fe3 O8
1.0
   0.0000000000000000   -5.2432220000000003    0.0000000000000000
  -6.0387610000000000    0.0000000000000000    0.0000000000000000
   0.0000000000000000   -1.7873760000000001   -5.5179440000000000
Na Ti Fe O
3 1 3 8
direct
   0.0000000000000000    0.7602819999999999    0.0000000000000000 Na
   0.5000000000000000    0.5000000000000000    0.0000000000000000 Na
   0.0000000000000000    0.2397180000000000    0.0000000000000000 Na
  -0.0000000000000000    0.0000000000000000    0.5000000000000000 Ti
   0.4999999999999999    0.2506750000000000    0.5000000000000000 Fe
   0.4999999999999999    0.7493250000000000    0.5000000000000000 Fe
  -0.0000000000000000    0.5000000000000000    0.5000000000000000 Fe
   0.2684070000000000    0.5000000000000000    0.7010320000000000 O
   0.7754650000000000    0.2459780000000000    0.6921510000000000 O
   0.2556049999999999    0.0000000000000000    0.6885510000000000 O
   0.7754650000000000    0.7540220000000000    0.6921510000000000 O
   0.7443950000000000    0.0000000000000000    0.3114490000000000 O
   0.2245350000000000    0.7540220000000000    0.3078490000000000 O
   0.7315929999999999    0.5000000000000000    0.2989680000000000 O
   0.2245350000000000    0.2459780000000000    0.3078490000000000 O
