Na4 Hf2 Mo6 O24
1.0
   0.0488420012130782   -0.0000006770681067    5.0869842013388018
  -8.1320548830580854    5.7196686504760592    1.8611716025260059
  -8.1320534471158084   -5.7196670998546146    1.8611731111754568
Na Hf Mo O
4 2 6 24
direct
   0.0939372335012293    0.0390849628670011    0.2854072462644570 Na
   0.9060522921281400    0.9609138596520969    0.7144876095210695 Na
   0.4060627860631355    0.7145927487581928    0.9609150625311801 Na
   0.5939477139580678    0.2855123744068020    0.0390861609446146 Na
   0.2499999582753447    0.6243763170723348    0.3756236818856560 Hf
   0.7500000717842196    0.3755014700330585    0.6244985300010556 Hf
   0.2499999964219033    0.1437142020732858    0.8562857949975998 Mo
   0.7500000208824974    0.8560063064033606    0.1439936804009391 Mo
   0.3793962416401443    0.2348505036884682    0.4451856077884680 Mo
   0.6206494112413882    0.7650711487843322    0.5547062156390011 Mo
   0.1206039866807549    0.5548143161164170    0.7651494713628000 Mo
   0.8793507170810485    0.4452937047510194    0.2349288683385949 Mo
   0.1140471238790700    0.3900148358939670    0.4714535647288639 O
   0.8858491788289272    0.6100969066648144    0.5285803172754148 O
   0.3859528830150912    0.5285463930863784    0.6099851748742261 O
   0.6141507816912158    0.4714197046734984    0.3899030906444684 O
   0.0162534980575639    0.1854416644031398    0.7212296140002589 O
   0.9838388920054573    0.8145475473333307    0.2789166614686821 O
   0.4837464957670327    0.2787703997055416    0.8145583273863798 O
   0.5161610615785861    0.7210833390041672    0.1854524247601185 O
   0.4375331971714101    0.9777290635449156    0.8641115111043893 O
   0.5625648418426866    0.0221005189387139    0.1357623674662793 O
   0.0624667799230818    0.1358884757953164    0.0222709741593431 O
   0.9374352891643272    0.8642376573875626    0.9778993312722171 O
   0.4064289118558864    0.7872784298797268    0.4174713826701660 O
   0.5930722732369687    0.2129842929756633    0.5824450743202485 O
   0.0935710388271997    0.5825286148557637    0.2127215652418261 O
   0.9069279277545036    0.4175548823152748    0.7870157953459292 O
   0.2440700833382905    0.0751496246147815    0.4942174215727053 O
   0.7560718643200961    0.9247643264481369    0.5057106772700661 O
   0.2559302216297436    0.5057825964458078    0.9248503238158726 O
   0.7439283192013226    0.4942893576353979    0.0752356521708927 O
   0.3672700407469091    0.7482062302490367    0.7067411271564343 O
   0.6328855116366454    0.2517418084679346    0.2931753401002402 O
   0.1327299513487493    0.2932588827040634    0.2517938100407995 O
   0.8671145904544592    0.7068246117789297    0.7482582668555030 O
