Na4 Cr2 As2 C2 O14
1.0
   9.1268709999999995   -0.0001920000000000    0.0652880000000000
  -0.0001430000000000    6.7419549999999999    0.0000640000000000
   0.1700630000000000    0.0000470000000000    5.3548049999999998
Na Cr As C O
4 2 2 2 14
direct
   0.2223180000000000    0.0021970000000000    0.2356280000000000 Na
   0.2223200000000000    0.4978190000000001    0.2356640000000000 Na
   0.7776220000000001    0.5022529999999999    0.7643120000000000 Na
   0.7776330000000001    0.9977980000000001    0.7643280000000000 Na
   0.3444540000000000    0.7498430000000001    0.7889870000000000 Cr
   0.6553020000000001    0.2499850000000000    0.2111920000000000 Cr
   0.4245470000000000    0.2499980000000000    0.7148369999999999 As
   0.5754960000000001    0.7500050000000000    0.2851090000000000 As
   0.0786760000000000    0.7500080000000001    0.7222970000000000 C
   0.9213239999999999    0.2500190000000000    0.2777470000000000 C
   0.0564100000000000    0.2500130000000000    0.3112850000000000 O
   0.1368910000000000    0.7499820000000000    0.9438870000000000 O
   0.1798320000000000    0.7499910000000001    0.5374710000000000 O
   0.3210250000000000    0.0483680000000000    0.8036869999999999 O
   0.3210160000000000    0.4516190000000000    0.8037060000000000 O
   0.4085060000000000    0.7499900000000000    0.1462310000000000 O
   0.4550529999999999    0.2500130000000000    0.3924030000000000 O
   0.5450340000000000    0.7499770000000000    0.6075520000000000 O
   0.5914920000000001    0.2500100000000000    0.8536709999999998 O
   0.6790420000000001    0.5483630000000000    0.1962020000000000 O
   0.6790380000000001    0.9516690000000000    0.1962180000000000 O
   0.8201279999999999    0.2500210000000000    0.4625180000000000 O
   0.8632230000000000    0.2500230000000001    0.0561380000000000 O
   0.9436150000000001    0.7500340000000001    0.6889290000000000 O
