Na1 Zr2 V1 F11
1.0
   3.4446080000000001    4.6693160000000002    0.0000000000000000
  -3.4446080000000001    4.6693160000000002    0.0000000000000000
   0.0000000000000000    3.4861800000000001    7.1237009999999996
Na Zr V F
1 2 1 11
direct
   0.0000000000000000    0.0000000000000000    0.0000000000000000 Na
   0.5042550000000000    0.5042550000000000    0.7653130000000000 Zr
   0.4957450000000000    0.4957449999999999    0.2346870000000000 Zr
  -0.0000000000000000   -0.0000000000000000    0.5000000000000000 V
   0.2210710000000001    0.8054890000000001    0.6919410000000000 F
   0.1945110000000001    0.7789300000000001    0.3080590000000000 F
   0.7789300000000000    0.1945110000000000    0.3080590000000000 F
   0.8054889999999999    0.2210700000000000    0.6919410000000000 F
   0.5000000000000001    0.5000000000000001    0.5000000000000000 F
   0.6698490000000000    0.3301510000000000    0.0000000000000000 F
   0.3301510000000000    0.6698490000000001    0.0000000000000000 F
   0.2513839999999999    0.2513839999999999    0.3532840000000000 F
   0.7486159999999999    0.7486159999999999    0.6467160000000000 F
   0.2674940000000001    0.2674940000000001    0.8897330000000001 F
   0.7325060000000000    0.7325060000000000    0.1102670000000000 F
