Na8 W8 O28
1.0
   3.6921260000000000   -6.0541840000000002    0.0000000000000000
   3.6921260000000000    6.0541840000000002    0.0000000000000000
   0.0000000000000000    0.0000000000000000   15.0443929999999995
Na W O
8 8 28
direct
   0.6693489999999999    0.3306510000000000    0.3460530000000001 Na
   0.2502929999999999    0.2502930000000000    0.0000000000000000 Na
   0.3306509999999999    0.6693490000000000    0.6539469999999999 Na
   0.7497069999999999    0.7497070000000001    0.0000000000000000 Na
   0.2497070000000000    0.2497070000000000    0.5000000000000000 Na
   0.7502929999999999    0.7502930000000000    0.5000000000000000 Na
   0.1693489999999999    0.8306510000000000    0.1539470000000000 Na
   0.8306510000000000    0.1693490000000001    0.8460530000000002 Na
   0.1623110000000000    0.3376890000000000    0.2500000000000000 W
   0.7460820000000000    0.2539180000000000    0.5863360000000000 W
   0.3376890000000000    0.1623110000000000    0.7500000000000000 W
   0.8376889999999999    0.6623110000000000    0.7500000000000000 W
   0.7539180000000000    0.2460820000000000    0.0863360000000000 W
   0.2539179999999999    0.7460820000000000    0.4136640000000000 W
   0.2460819999999999    0.7539180000000000    0.9136640000000001 W
   0.6623109999999999    0.8376890000000000    0.2500000000000000 W
   0.1236719999999999    0.8763280000000000    0.4691820000000000 O
   0.8602870000000000    0.1397129999999999    0.0022690000000000 O
   0.1968250000000000    0.2080660000000000    0.8388480000000001 O
   0.3763279999999999    0.6236720000000000    0.9691820000000000 O
   0.6968250000000000    0.7080660000000000    0.6611520000000000 O
   0.7919339999999998    0.8031750000000001    0.8388480000000001 O
   0.9351100000000000    0.4716000000000001    0.6566130000000000 O
   0.8031749999999999    0.7919340000000000    0.1611520000000000 O
   0.4351099999999999    0.9716000000000001    0.8433870000000001 O
   0.2919340000000000    0.3031750000000000    0.6611520000000000 O
   0.8766670000000000    0.1233330000000000    0.2815110000000000 O
   0.6397130000000000    0.3602870000000000    0.5022690000000000 O
   0.1233329999999999    0.8766670000000000    0.7184890000000002 O
   0.6236719999999999    0.3763280000000000    0.0308180000000000 O
   0.3766669999999999    0.6233330000000000    0.2184890000000000 O
   0.1397129999999999    0.8602870000000000    0.9977310000000001 O
   0.5284000000000000    0.0648900000000000    0.6566130000000000 O
   0.0284000000000000    0.5648900000000001    0.8433870000000001 O
   0.4716000000000000    0.9351100000000001    0.3433870000000000 O
   0.3602870000000000    0.6397130000000000    0.4977310000000000 O
   0.6233329999999999    0.3766670000000000    0.7815110000000000 O
   0.0648899999999999    0.5284000000000000    0.3433870000000000 O
   0.2080660000000000    0.1968250000000000    0.1611520000000000 O
   0.9716000000000000    0.4351100000000001    0.1566130000000000 O
   0.5648900000000000    0.0284000000000000    0.1566130000000000 O
   0.3031749999999999    0.2919340000000000    0.3388480000000000 O
   0.8763279999999999    0.1236720000000000    0.5308180000000001 O
   0.7080659999999999    0.6968250000000001    0.3388480000000000 O
