Na5 Li3 Ti5 O14
1.0
   5.2341595957749947   -0.0000724025567081    0.0001122609675679
  -0.8967973307419145    6.9846614924329291   -0.0000624311096241
  -1.6396805458197174   -0.2643441532998600    8.0972826111179543
Na Li Ti O
5 3 5 14
direct
   0.5130699521636901    0.0000498703508153    0.4975457824625113 Na
   0.9103800046771469    0.8456992929922185    0.3452823073126892 Na
   0.6576916116695067    0.3098614307515639    0.8098960207672115 Na
   0.0739268101490659    0.1360940801783320    0.6398065614936267 Na
   0.3505810004287122    0.7125027728138000    0.2118688595019650 Na
   0.2172377589275801    0.4477402229586412    0.9398497596853594 Li
   0.8578961331162490    0.7074401936617307    0.7154627650636810 Li
   0.5674093736202186    0.1517316073675918    0.1397863470736723 Li
   0.0115948798749578    0.9880952345706926    0.9929300770298443 Ti
   0.4500497099467229    0.8583483343379393    0.8671730482576659 Ti
   0.2715939289988259    0.5760711402913598    0.5852003886516229 Ti
   0.6948395490518507    0.4295639327104933    0.4230230568873446 Ti
   0.1216471079476112    0.2799044745577932    0.2665233142064264 Ti
   0.1273350872731780    0.7521323218415339    0.9523351888326905 O
   0.7507457080433930    0.9809698368417115    0.7819277966748707 O
   0.2069498429092164    0.8264847189170036    0.6202685391473414 O
   0.4851957349635939    0.5929810654267293    0.8035785200620711 O
   0.9679158159689845    0.4476478721744891    0.6515962613362823 O
   0.3090395072714412    0.1033008828112398    0.9011707438240349 O
   0.5978423626478875    0.6729877960275971    0.4774558390083912 O
   0.0371585515359407    0.5362156667157750    0.3506402937383773 O
   0.6808214109212478    0.8819837867192952    0.0723193045594795 O
   0.4046232755408150    0.3121387620362986    0.5193682058411428 O
   0.8310015145708076    0.1795888969840793    0.3732137581698136 O
   0.4563282216933021    0.4050364377318639    0.2126867031524789 O
   0.9451938682376827    0.2687019144881382    0.0510382254001761 O
   0.2152576846832644    0.0261137539181907    0.2276604832098881 O
