Na2 Y2 Ti4 O12
1.0
   5.3352487864316496   -0.0000001099884184    0.0000001137755739
  -0.0000001143514792    5.5466565392982643    0.0000024258873534
   0.0000001630010753    0.0000033428473958    7.6431278808799590
Na Y Ti O
2 2 4 12
direct
   0.4948495137040481    0.7158059068284141    0.4999888477594523 Na
   0.9948495247902105    0.2841940927231003    0.0000111572717505 Na
   0.0165309218347360    0.1801797849953446    0.4999824220614247 Y
   0.5165309128750556    0.8198202101767400    0.0000175792474439 Y
   0.5129849337969836    0.2648324300623064    0.7527384493981336 Ti
   0.0129701079621518    0.7352220762160339    0.2527975517159886 Ti
   0.5129701074495314    0.2647779385864077    0.2472024406457093 Ti
   0.0129849276190184    0.7351675269292347    0.7472615545889759 Ti
   0.9232025301374450    0.7727717829780025    0.5000218958089346 O
   0.5990687058685453    0.2753200430121736    0.4999995840340525 O
   0.0990687033332695    0.7246799660060049    0.0000004302674020 O
   0.4232025158384585    0.2272282433245486   -0.0000219198490999 O
   0.1917029885675125    0.4459607515336120    0.6985189205864479 O
   0.2785696204003877    0.9628938925971118    0.2899365903657112 O
   0.7785696288480892    0.0371061085156576    0.2100634005634646 O
   0.6917029997568865    0.5540392471840662    0.8014810580421429 O
   0.7785795252841821    0.0371061088546847    0.7899156518146547 O
   0.6916974391182851    0.5540466893448093    0.1985046401337064 O
   0.1916974387463230    0.4459533014939118    0.3014953550470222 O
   0.2785795150250049    0.9628938798156218    0.7100843423868736 O
