Na2 Co4 O6
1.0
   0.0206715685759675   -0.0010703738623303    5.1881646375618260
   5.1023425789446710    2.9653737363096195    0.0196625677326717
  -5.1012378959861220    2.9635797762430935   -0.0209106941352149
Na Co O
2 4 6
direct
   0.9945832484134344    0.3274880091045618    0.3267173628565916 Na
   0.4945101439538958    0.6727231748011131    0.6729750396910251 Na
   0.0186509753196817    0.0109137207287492    0.6705907853322605 Co
   0.5077050293699467    0.9952455426180288    0.3262459400758682 Co
   0.5186564839520268    0.3296506164645767    0.9888901962655036 Co
   0.0078069810648342    0.6741521449541558    0.0050412006285832 Co
   0.4658715087424935    0.2768407035150791    0.2861964540231299 O
   0.9655130714177812    0.7138169478209891    0.7229811587999104 O
   0.3965344627799065    0.0468249282614385    0.6543064311977763 O
   0.8963372351626983    0.3456680714542535    0.9523760158974088 O
   0.3776501962594314    0.6726811291326013    0.0663399907000295 O
   0.8779038240004423    0.9340011933229067    0.3273978428931099 O
