Na15 Mg7 Nb5 P18 O72
1.0
   8.8992235700398226    0.0201321049453230   -0.0131576029429848
  -4.4321782790348916    7.6812366535156071    0.0030167005495811
  -0.0335576379295319   -0.0105226082559071   22.3806345181633617
Na Mg Nb P O
15 7 5 18 72
direct
   0.9899000688677007    0.6355586370388248    0.2422835347686911 Na
   0.6550202986308503    0.6424938756000149    0.7437279766936685 Na
   0.9878721709640811    0.3439806082257745    0.7452927047084386 Na
   0.3570039696673383    0.0112482099781450    0.7448968900453607 Na
   0.2945469996593731    0.3336215438852433    0.5844222615755656 Na
   0.0400584223662261    0.7065126796620791    0.5858022676224170 Na
   0.6636941220460886    0.9621740555326815    0.5858525924041112 Na
   0.6581999159690117    0.6893346911710124    0.0755584419813858 Na
   0.3223392655818953    0.0232748885298612    0.4087856782922297 Na
   0.9842426581695766    0.9978850709636471    0.4949238982311298 Na
   0.0172358679414133    0.0151418204068927    0.9877923977947055 Na
   0.6673473204309488    0.3336235044666094    0.8314385091464891 Na
   0.6623296337963958    0.3288305764435462    0.3236950552245060 Na
   0.3294820168771706    0.6682620018966997    0.1565387763430974 Na
   0.3332761784964233    0.6663362732592515    0.6638727260048478 Na
   0.9949897818419497    0.0007137188274206    0.3539875869946546 Mg
   0.9999230891866894   -0.0001637113565521    0.8514876108400750 Mg
  -0.0000437123497737    0.0005725882222603    0.6477882133249603 Mg
   0.6667175880623437    0.3329061340439148    0.6848965376617320 Mg
   0.6623103577796836    0.3274244117475041    0.1865403984023886 Mg
   0.3273978794010145    0.6663598729954596    0.0193285746756392 Mg
   0.3350991912511312    0.6667638617990329    0.5185149352156645 Mg
   0.0023163959096182    0.0066370336239212    0.1453030232643681 Nb
   0.6652081229119158    0.3291629086348466    0.9794540949275469 Nb
   0.6704664969293915    0.3374345535475352    0.4778068189963439 Nb
   0.3366074456366306    0.6632444915991940    0.3124962344066117 Nb
   0.3326022969997452    0.6665201839980530    0.8194143687551234 Nb
   0.2933133195916887    0.0044609645962213    0.2548716784072997 P
   0.7129585753875628    0.7120928702297562    0.2507431622910761 P
   0.9981770815905061    0.2892171259399914    0.2537677560873080 P
   0.2932927466721315    0.2945841695045704    0.7480410788756345 P
   1.0019984882628046    0.7068040312414715    0.7481293934598824 P
   0.7044914604347141   -0.0031032144839120    0.7479915889690119 P
   0.9604377048309448    0.3331561913008617    0.5853411008350256 P
   0.3720068819686494    0.0402331344133315    0.5833111717025702 P
   0.6668308513062978    0.6278757923788394    0.5854698840517132 P
   0.9610358616724134    0.6227619032948861    0.0878617871594951 P
   0.6645600632885145    0.0419384412854763    0.0864389518385286 P
   0.3791717748784540    0.3344606435594637    0.0853131153542615 P
   0.6329396656650015    0.6714843196455956    0.9226494367267214 P
   0.0404095120492527    0.3704306768268196    0.9205844982543601 P
   0.3309933919656424    0.9613107003529184    0.9200518390029627 P
   0.6276163085881001    0.9562070485031631    0.4207346765393457 P
   0.3289485057413659    0.3718581647592391    0.4214283742605026 P
   0.0420650159105669    0.6658161889926814    0.4181535297912715 P
   0.2130831497464655    0.0171709795839727    0.3127842616744974 O
   0.8311093120587062    0.8052611578399587    0.3023540753896917 O
   0.9890322283855710    0.1883636144980639    0.3081842796975012 O
   0.2014608884145277    0.1757421136148888    0.7999127713393775 O
   0.9757465753778567    0.7982612620082105    0.8004144420934953 O
   0.8237940966474361    0.0252057179501570    0.8000090249976768 O
   0.7701818620736389    0.9599984421912791    0.6886248286690196 O
   0.1902666622103464    0.2301793219815197    0.6885810929598182 O
   0.0379293070019335    0.8099823679590520    0.6888292573235716 O
   0.7893868858865020    0.8202796478024952    0.1909467118008038 O
   0.0189216911666259    0.1972330919043071    0.1954999448984694 O
   0.1626092622502041    0.9716790087072228    0.2005361522288976 O
   0.8729196799477911    0.3481764284732761    0.6414307561085260 O
   0.4783039913932458    0.1320458123613575    0.6385737116800340 O
   0.6552031772010545    0.5265467636705974    0.6416799892692481 O
   0.8796774900728791    0.5296059243004410    0.1456853669658699 O
   0.6545658574568722    0.1333681350824665    0.1408111805392302 O
   0.4929421167398946    0.3588286894641057    0.1382075580235348 O
   0.4642057078225726    0.3052427919813724    0.0270399174687373 O
   0.8317203884564429    0.5255128359634155    0.0334746699270666 O
   0.6857851696997230    0.1542893735697543    0.0282791726445699 O
   0.4742762604354852    0.1508337368065244    0.5254973019274957 O
   0.6735082388996939    0.5182888461350619    0.5290790826835652 O
   0.8429812960992290    0.3239829407575553    0.5289731967628613 O
   0.5468952382427847    0.6836669076657362    0.9788774536860183 O
   0.1499120949578552    0.4628548041427304    0.9735448978915171 O
   0.3212423507810527    0.8551689711177131    0.9732164029755925 O
   0.5444332544430007    0.8637737764545722    0.4785925549460281 O
   0.3217023951712126    0.4583350838059914    0.4784668887965838 O
   0.1474503427019863    0.6808374366067460    0.4734823561442569 O
   0.1295749558870394    0.6415290955457711    0.3601052447095688 O
   0.4983265468661349    0.8579581129438175    0.3661458392392317 O
   0.3484282126783543    0.4900564504027102    0.3650999999513287 O
   0.1300525573291121    0.4901858245904763    0.8615591165444423 O
   0.3556516414061112    0.8699613044990264    0.8607255537937882 O
   0.5058836479439741    0.6455607135624830    0.8663801068013072 O
   0.0205824292975889    0.8249333526173397    0.4127247245974349 O
   0.8060597067008599    0.9825509497434519    0.4115874628971165 O
   0.1789011986836019    0.1874560376538977    0.4149348270995856 O
   0.0113236921440733    0.1908295151924555    0.9091609276641450 O
   0.1800005563117743    0.9902616330347912    0.9102506923072915 O
   0.8101744538320983    0.8240717664977517    0.9110269351756703 O
   0.9686874341414234    0.1643467130586935    0.5817254884431519 O
   0.1942814287298864    0.0303020300327539    0.5808302008147437 O
   0.8342614346412885    0.8047655354427358    0.5810970548506268 O
   0.9656184237278657    0.8064731991922753    0.0893872762114129 O
   0.8394845957860401    0.0299773961439848    0.0882071385486604 O
   0.1961083263854403    0.1618503164072661    0.0914063546063555 O
   0.6691811660702769    0.1507993320552393    0.7442913446072211 O
   0.4808698190098828    0.3271676277394485    0.7444851028585024 O
   0.8478622708799711    0.5183187558738941    0.7448595965757724 O
   0.6851531262766933    0.5290357269193043    0.2446572481129140 O
   0.8510689478200900    0.3287051498967575    0.2471070926848065 O
   0.4731952004032500    0.1540807283485973    0.2447650818189985 O
   0.6401187086984991    0.4965565386166014    0.9226145130186549 O
   0.8591572495368436    0.3646902817583882    0.9237293374101794 O
   0.5064482865938240    0.1435929586881993    0.9211648460870232 O
   0.6321810449759574    0.1389569700929551    0.4202076962979369 O
   0.5012620067337316    0.3579594866787140    0.4204588065585383 O
   0.8570081369998568    0.4962902558475346    0.4212673658189308 O
   0.3522614425730362    0.4897305191849639    0.0778310429730063 O
   0.1416238043543965    0.6535913125815639    0.0785009152749855 O
   0.5176216889515901    0.8552125989096862    0.0800019857364689 O
   0.3525668618935207    0.8576460140779129    0.5801075045955394 O
   0.5037790216982129    0.6456128338386415    0.5812392175656210 O
   0.1405838401082536    0.4960445813697698    0.5801764586769387 O
   0.2969995970101994    0.8247599156122785    0.2559897524434753 O
   0.5286398101578803    0.6990117029065429    0.2590605248431065 O
   0.1727719337664410    0.4762038545968814    0.2552855920455916 O
   0.3123613594427455    0.4825522634831169    0.7577166853595727 O
   0.1721703181656266    0.6896008806599123    0.7566350383655076 O
   0.5188966780385974    0.8261178192607906    0.7574203617050660 O
