Na1 Mg14 Cr1 O16
1.0
   8.5573797099999993    0.0000000000000000    0.0000000000000000
   0.0000000000000000    8.5573797099999993    0.0000000000000000
   0.0000000000000000    0.0000000000000000    4.2721096699999999
Na Mg Cr O
1 14 1 16
direct
   0.0000000000000000    0.0000000000000000    0.0000000000000000 Na
   0.0000000000000000    0.5000000000000000    0.0000000000000000 Mg
   0.5000000000000000    0.0000000000000000    0.0000000000000000 Mg
   0.0000000000000000    0.2449940700000000    0.5000000000000000 Mg
   0.0000000000000000    0.7550059300000000    0.5000000000000000 Mg
   0.5000000000000000    0.2452963400000000    0.5000000000000000 Mg
   0.5000000000000000    0.7547036600000000    0.5000000000000000 Mg
   0.2449940700000000    0.0000000000000000    0.5000000000000000 Mg
   0.2452963400000000    0.5000000000000000    0.5000000000000000 Mg
   0.7550059300000000    0.0000000000000000    0.5000000000000000 Mg
   0.7547036600000000    0.5000000000000000    0.5000000000000000 Mg
   0.2448503300000000    0.2448503300000000    0.0000000000000000 Mg
   0.2448503300000000    0.7551496700000000    0.0000000000000000 Mg
   0.7551496700000000    0.2448503300000000    0.0000000000000000 Mg
   0.7551496700000000    0.7551496700000000    0.0000000000000000 Mg
   0.5000000000000000    0.5000000000000000    0.0000000000000000 Cr
   0.2664801400000000    0.0000000000000000    0.0000000000000000 O
   0.2619079400000000    0.5000000000000000    0.0000000000000000 O
   0.7335198599999999    0.0000000000000000    0.0000000000000000 O
   0.7380920600000000    0.5000000000000000    0.0000000000000000 O
   0.2520610599999999    0.2520610599999999    0.5000000000000000 O
   0.2520610599999999    0.7479389400000001    0.5000000000000000 O
   0.7479389400000001    0.2520610599999999    0.5000000000000000 O
   0.7479389400000001    0.7479389400000001    0.5000000000000000 O
   0.0000000000000000    0.0000000000000000    0.5000000000000000 O
   0.0000000000000000    0.5000000000000000    0.5000000000000000 O
   0.5000000000000000    0.0000000000000000    0.5000000000000000 O
   0.5000000000000000    0.5000000000000000    0.5000000000000000 O
   0.0000000000000000    0.2664801400000000    0.0000000000000000 O
   0.0000000000000000    0.7335198599999999    0.0000000000000000 O
   0.5000000000000000    0.2619079400000000    0.0000000000000000 O
   0.5000000000000000    0.7380920600000000    0.0000000000000000 O
