Na9 Nb3 In9 P15 S3 O72
1.0
   8.9066181138697686   -0.0034584211652934   -0.0163835344603950
  -4.4563017266356999    7.7102004675993756    0.0176573844048859
  -0.0417492296257749    0.0272921120334526   23.0734924287670715
Na Nb In P S O
9 3 9 15 3 72
direct
   0.6502282541855701    0.6470171387020268    0.7442604534427298 Na
   0.3034560687824833    0.9607914101606049    0.0877909513193455 Na
   0.3351461217898932    0.0236673833735517    0.4072465073120801 Na
   0.9669457666128104    0.9962161717315129    0.4983674346122762 Na
   0.9807812925083487   -0.0066875111046158    0.9963580402292733 Na
   0.6633237953949052    0.2991857563521629    0.8290590981563830 Na
   0.6865963825850453    0.3502161995006133    0.3286296824301236 Na
   0.3336614999495175    0.6486493535278536    0.1645046429041123 Na
   0.2835182940321420    0.6476108859898194    0.6615733069370862 Na
   0.6700057470566110    0.3348762757814842    0.9792898198684364 Nb
   0.6766164448215962    0.3444878809925501    0.4829720786862098 Nb
   0.3286405570541832    0.6634504242524718    0.8182280143694711 Nb
   1.0005510533799808    0.0021287830659355    0.3483190260420419 In
   0.0015583655176784    0.0075199023482657    0.8512428803881004 In
   0.9978885863888382   -0.0003318009142154    0.6478553350000927 In
   1.0010657503628080    0.9992407766292938    0.1432108084900535 In
   0.6735627548154430    0.3348922346019989    0.6846640143812914 In
   0.6611310196259285    0.3298863988486850    0.1857704161703166 In
   0.3335730452831471    0.6623916780274135    0.0194628350716711 In
   0.3420102604430766    0.6632668001609336    0.5173521681877353 In
   0.3315555200352440    0.6701059665392795    0.3150019602522373 In
   0.2994786883375463    0.9959127257727594    0.2478453500707178 P
   0.2949133268733834    0.2965893651777186    0.7505919233488101 P
   0.0027079215892588    0.7121065790014932    0.7494142855885242 P
   0.7043977540591124    1.0027894621261053    0.7534015429649340 P
   0.9624960995429829    0.3304840811928066    0.5852613853963383 P
   0.6652697988734382    0.6303495967919016    0.5878272216505510 P
   0.9573390234640748    0.6231994565327427    0.0838516370020203 P
   0.6712856276138038    0.0426562769904554    0.0826918959288248 P
   0.3756489131161084    0.3334786784229342    0.0830702768314515 P
   0.6268002458686376    0.6654468933915694    0.9179295900951029 P
   0.0371646516095696    0.3694452301504782    0.9200710603806762 P
   0.3311596385045361    0.9577260425896212    0.9225267330197080 P
   0.6331776235131961    0.9648856124571781    0.4197269119422958 P
   0.3384253840667469    0.3758095068101407    0.4155039706084737 P
   0.0474630561131653    0.6715388844066755    0.4160008541491479 P
   0.6991095940033032    0.7040255488241336    0.2486283820114542 S
   0.0028920451002183    0.3003220125886614    0.2474396794627443 S
   0.3677427481146350    0.0406540821489932    0.5796143702787691 S
   0.2046740872865040   -0.0002154594806855    0.3035358095379916 O
   0.7849595082081793    0.7968391957242179    0.3026868919860572 O
   0.9909224922595921    0.2046032431988103    0.3013333649684473 O
   0.2220723390377813    0.1874876203991094    0.8050378755318698 O
   0.9465289690259922    0.7968576659120638    0.7955226294195830 O
   0.8192439638281341    0.0582355894093355    0.8073133124336694 O
   0.7763148798884786    0.9491118641331481    0.7015693915546393 O
   0.1887577685998147    0.2222933046403303    0.6950054253635419 O
   0.0467285168126340    0.8086649412620042    0.6909001116533292 O
   0.7879391729770006    0.8019077882648312    0.1957240854955453 O
  -0.0013437650905924    0.2056307491608742    0.1944454500788218 O
   0.2018887558429495    0.9874625267902654    0.1906669312892346 O
   0.8850843219040834    0.3430558119533133    0.6426706005086598 O
   0.4673806358445639    0.1391329205588861    0.6304932466740872 O
   0.6605368902234986    0.5439571501945053    0.6460100065266522 O
   0.8672712517652867    0.5252611239653235    0.1385588396114111 O
   0.6465110075028252    0.1256841562597312    0.1367335402151601 O
   0.4680923703211373    0.3460336217691002    0.1399263354432157 O
   0.4855702651690457    0.3254585691269838    0.0297633363754597 O
   0.8502497971035466    0.5191429585483543    0.0278657120360673 O
   0.6794664157917836    0.1538656336630452    0.0271299804912546 O
   0.4568267598323764    0.1339772853281226    0.5242347141019533 O
   0.6657843568316238    0.5099398960190520    0.5361479471838683 O
   0.8330050662295244    0.3137196350848926    0.5340186866462662 O
   0.5461433509733260    0.6926941689983427    0.9715506295837660 O
   0.1345845412219056    0.4555973934526627    0.9749019251586863 O
   0.3099498931380645    0.8694441608227659    0.9812669011201159 O
   0.5702014638317133    0.8592751824207069    0.4758190736607334 O
   0.2986482619580091    0.4453840702714842    0.4698611594627883 O
   0.1826379528951964    0.7238364989857697    0.4643235163361980 O
   0.0959629202102132    0.6160473440391395    0.3595874191741806 O
   0.5030137117258627    0.8900187052177665    0.3688477937843678 O
   0.3766247950365418    0.4876396733412258    0.3609890992029506 O
   0.1348707468172156    0.4843209407034764    0.8653133245476130 O
   0.3579551785631452    0.8505582239968807    0.8729153504828091 O
   0.5077962390377887    0.6318361250901027    0.8630632382140540 O
   0.0147014534685341    0.8248319958215939    0.4094090050454557 O
   0.8172937956599062    1.0016404587437795    0.4077473143664580 O
   0.1931947696463682    0.1850133890483003    0.4077380041553099 O
   0.0140522447010432    0.1887154318571796    0.9152885156156361 O
   0.1743203402351939    0.9773092582364736    0.9104122016993091 O
   0.8083458818513867    0.8191437301979572    0.9094982587166965 O
   0.9771322232050254    0.1660908127123982    0.5819154903730138 O
   0.1944665174664519    0.0249132958847699    0.5785541178845891 O
   0.8332515208249962    0.8059023514608008    0.5816134240901436 O
   0.9717578737538934    0.8039999186558533    0.0799651004331964 O
   0.8389653136722014    0.0339334010325460    0.0817367493547633 O
   0.2024008211020438    0.1583183541170525    0.0788949524537615 O
   0.6501839271820825    0.1382351690649101    0.7415785005215145 O
   0.4870365432428924    0.3430576690656966    0.7450466520393020 O
   0.8532096137620762    0.5220636641181967    0.7464529313780631 O
   0.6944626255179832    0.5344322696681291    0.2505103723237251 O
   0.8522399667719517    0.3296447668859117    0.2485409619617540 O
   0.4818146373057409    0.1626254073301729    0.2502056121247875 O
   0.6400495937545247    0.4959845635426179    0.9249290047803749 O
   0.8544948265310033    0.3572914376707820    0.9209943058154221 O
   0.5012903438473318    0.1408484284579414    0.9236164026786081 O
   0.6461335160669160    0.1493019464155022    0.4297720235035326 O
   0.5080313030331449    0.3597529588469005    0.4269816654599889 O
   0.8668336581389239    0.5103262070387806    0.4349822916954782 O
   0.3509283607714226    0.4903466655578597    0.0793150065163659 O
   0.1422473093010726    0.6496403094026084    0.0824093285113399 O
   0.5063968943570244    0.8625877408433400    0.0792372763435338 O
   0.3548248182462682    0.8683402049857332    0.5807235654914789 O
   0.4998684358517160    0.6426344056471783    0.5835944968795161 O
   0.1346693335090796    0.4994856572108694    0.5763234408467228 O
   0.3180672358817834    0.8312183355665921    0.2485752423143470 O
   0.5197813420024324    0.6756461308319681    0.2473865835648068 O
   0.1677719068507693    0.4692526956937061    0.2471356481645856 O
   0.3069749634392789    0.4815577542146313    0.7606585884885469 O
   0.1709184523352917    0.7059866572185429    0.7684848036551212 O
   0.5273254307015958    0.8279330818636724    0.7677573874378580 O
