Na1 Tl2 Mo1 F6
1.0
   0.0000000000000000    4.4122659999999998    4.4122659999999998
   4.4122659999999998    0.0000000000000000    4.4122659999999998
   4.4122659999999998    4.4122659999999998    0.0000000000000000
Na Tl Mo F
1 2 1 6
direct
   0.5000000000000000    0.5000000000000000    0.5000000000000000 Na
   0.7500000000000000    0.7500000000000001    0.7500000000000001 Tl
   0.2500000000000000    0.2500000000000000    0.2500000000000000 Tl
   0.0000000000000000    0.0000000000000000    0.0000000000000000 Mo
   0.7614379999999999    0.2385620000000001    0.7614380000000001 F
   0.2385620000000000    0.2385620000000000    0.7614379999999999 F
   0.7614379999999999    0.7614379999999999    0.2385620000000000 F
   0.7614380000000001    0.2385620000000000    0.2385620000000001 F
   0.2385620000000000    0.7614380000000001    0.2385620000000001 F
   0.2385620000000001    0.7614379999999999    0.7614380000000001 F
