Na12 Mn4 B8 O24
1.0
   9.6820516464664124   -0.0000014245993097   -0.0000031087600677
  -0.0000008205286282    5.5779875253583562    0.0008113451178459
  -0.0000039884425322    4.6738057722511215   10.2888640834435847
Na Mn B O
12 4 8 24
direct
   0.9609765596571892    0.4933314481342146    0.3569306727464683 Na
   0.6502332442464717    0.4557381544941122    0.3729536037850855 Na
   0.9820501315988436    0.9323346307641527    0.8807184185449323 Na
   0.1502332513126704    0.5442616750408741    0.1270464183735999 Na
   0.4609764274997603    0.5066685021146813    0.1430693597381664 Na
   0.4820500007042087    0.0676653864981623    0.6192815628974480 Na
   0.5179973053618728    0.9323694757008144    0.3806988990453498 Na
   0.5387113582884330    0.4933543603935580    0.8570176965466628 Na
   0.8496899732378121    0.4553470491776540    0.8731089911365979 Na
   0.0179973958739497    0.0676304666934904    0.1193011503204915 Na
   0.3496898397452237    0.5446528982375048    0.6268909916647749 Na
   0.0387113381814661    0.5066459075293226    0.6429822247710891 Na
   0.3010814962916917    0.9958922916321421    0.8757029514946720 Mn
   0.8010815153469366    0.0041079843603721    0.6242971241956997 Mn
   0.1987782642747596    0.9956181574551465    0.3758945392989564 Mn
   0.6987781197060020    0.0043818744301977    0.1241055904991254 Mn
   0.3068802512508024    0.4499596423332295    0.3831970398463461 B
   0.6494913489464625    0.9736996433122679    0.8651491913976981 B
   0.8068804607863093    0.5500406551936247    0.1168028902069094 B
   0.1494913560699751    0.0263002356219532    0.6348509706704475 B
   0.8503531036051610    0.9740807510865525    0.3650336540955821 B
   0.1931483645624692    0.4499302093039320    0.8830255155648391 B
   0.3503532774359563    0.0259193721524417    0.1349663612374563 B
   0.6931482903527406    0.5500700543890600    0.6169743735221748 B
   0.3131705636320192    0.8749851622750765    0.0664189498197884 O
   0.6921804721945326    0.3249196818482689    0.5922166449839249 O
   0.9258799562974190    0.6874922305258048    0.1112757460421405 O
   0.6806848392028088    0.6358652735727498    0.1469675912119785 O
   0.2595360215241926    0.1178349359685989    0.6881416044735911 O
   0.0154892705735062    0.0841701004489650    0.6519410634349287 O
   0.1806847274324352    0.3641347272729354    0.3530323256493935 O
   0.4258800024030835    0.3125079694849293    0.3887242542160195 O
   0.5154892868972369    0.9158298074259152    0.8480589652967729 O
   0.7595360197782722    0.8821652417591626    0.8118583508440723 O
   0.8131705982358541    0.1250144838136537    0.4335811106396359 O
   0.1921804490562220    0.6750803511472460    0.9077833489665387 O
   0.8081894272934658    0.3245827954903026    0.0922482040375587 O
   0.1866017462220441    0.8748506640766773    0.5665496917152965 O
   0.2403055974447518    0.1172884584834062    0.1883840490905021 O
   0.4843514363976406    0.0839030569248168    0.1519796287744694 O
   0.5740492730602980    0.6868389865687572    0.6115914546975915 O
   0.8193083314019055    0.6363512012613236    0.6471617942588128 O
   0.9843514942160606    0.9160967139315591    0.3480203665389656 O
   0.7403054275469477    0.8827116390430265    0.3116159021822255 O
   0.3193083110469732    0.3636488058523107    0.8528382268789757 O
   0.0740492856955536    0.3131608466630841    0.8884085571108736 O
   0.3081894567558229    0.6754171676076650    0.4077518296893881 O
   0.6866018493510551    0.1251491839870013    0.9334505286354325 O
