Na10 Ni4 P4 C4 O28
1.0
   6.5703496917087403    0.0000588848755460    0.0000311644955037
  -0.0519349882408074   10.2076065062899719   -0.0004567078039881
   0.0004761415353405   -5.0616148130131693    9.1300003027853140
Na Ni P C O
10 4 4 4 28
direct
   0.4900597162524292    0.2691891583700939    0.2690534861189675 Na
   0.0092371805185993    0.2676554420693820    0.2677506719221247 Na
   0.9973400086367420    0.7385506230131526    0.2443037976529788 Na
   0.5056976070282549    0.7355443230388722    0.2387126921077149 Na
   0.7371590764215259    0.9129368209859746    0.0626473749348599 Na
   0.7382023397286819    0.9147943649584658    0.5718076049166864 Na
   0.2602399767894603    0.0795354564311803    0.9270442052846634 Na
   0.0092378007466166    0.2638046288854725    0.7489042770677002 Na
   0.4877509907642325    0.2646465141343723    0.7488095349288046 Na
   0.9753722100341196    0.7255670535718451    0.7394430014187741 Na
   0.7499665079568146    0.3466041704991687    0.0632371272460192 Ni
   0.2540868677628609    0.6528307789626703    0.4393910227169274 Ni
   0.7498557060553411    0.3503148513902081    0.5639560984182392 Ni
   0.2540489906918822    0.6537512331338295    0.9333829888503606 Ni
   0.2494408376382156    0.4185636632504975    0.0670416805514257 P
   0.7517936666035894    0.5784478961998943    0.4302704678132413 P
   0.2508681263493864    0.4248133321111518    0.5702621405605611 P
   0.7501577500682005    0.5810435359259335    0.9368727118542096 P
   0.2466391660394406    0.9346461092544774    0.1083804679432895 C
   0.2480402931587126    0.9307682508701155    0.6099706381817137 C
   0.7495092446835914    0.0674186560142016    0.3928700679140277 C
   0.7563640779307351    0.0683553772538059    0.8895221927811057 C
   0.7474704916847319    0.1253228793491342    0.0320642860871536 O
   0.0638761673247840    0.3168292688986155    0.0538664495430696 O
   0.4365387332715623    0.3199738736889142    0.0553671187592766 O
   0.7520430371268566    0.4289254127202031    0.2852721926428429 O
   0.2501794905570260    0.4549928673570430    0.4360740067452659 O
   0.7599824550993798    0.5452390396374851    0.0666281331706990 O
   0.2494261440347467    0.5679471471022650    0.2123188959072221 O
   0.9380092875932781    0.6802255309511539    0.4444573076706601 O
   0.5658454730020454    0.6765614448531978    0.4401031776034393 O
   0.2495356424432631    0.8435150098130614    0.1617025752691930 O
   0.2411390696971398    0.8388850693461450    0.6619497215297759 O
   0.2565111607088691    0.8692857072209662    0.4673938003593637 O
   0.7506485840293021    0.9243434503688487    0.3109780133191650 O
   0.7724634363743091    0.9278606841560482    0.8055219394429773 O
   0.2495568190385477    0.0771270201325299    0.1863321885017200 O
   0.2490186385455934    0.0728577896526250    0.6940073798381173 O
   0.7487854049205764    0.1282045216857184    0.5354532739694374 O
   0.7487992828202366    0.1574030446954080    0.3375216610440924 O
   0.7478453347118402    0.1627339649613737    0.8384316051754319 O
   0.0622376797082747    0.3247810949277870    0.5547168907986847 O
   0.4395167970660395    0.3287981374067416    0.5578609719198455 O
   0.7477067234067298    0.4339007445179118    0.7898226209154742 O
   0.2488000229892549    0.4510538307943386    0.9350759571191912 O
   0.7571089315098380    0.5427862978704119    0.5588877631136713 O
   0.2436210425991382    0.5719159458656324    0.7146353176537417 O
   0.5609272155189471    0.6805701380742822    0.9614550140315765 O
   0.9358305633525251    0.6821392282346802    0.9487641343274051 O
   0.2433124391501962    0.8728257846392076    0.9657948352412854 O
