Na2 V4 O8
1.0
   6.0678147269287415   -0.0880159602223663   -0.0556142083213158
  -0.0878717906001541    6.0664061610083131    0.0547654208376490
   2.9485813497837245    3.0300079564389146    4.5137922122272238
Na V O
2 4 8
direct
   0.8758085232620587    0.6257487527606022    0.2499518016637370 Na
   0.1242211762697720    0.3742551156023366    0.7500019334533496 Na
   0.4998879886056787    0.5000271510142628    0.0001375440275324 V
   0.5000039969969234   -0.0000007307880258    0.0000283056623475 V
   0.4998834041675286    0.9999823628619575    0.5001333229177609 V
   0.0000110037952945    0.9999793313433596    0.4999764812986825 V
   0.3053449176248448    0.7692844967053688    0.9489710754723374 O
   0.7180926734146097    0.7540884640533958    0.5511599330515202 O
   0.7245774227978662    0.1911628922825165    0.5336363477963425 O
   0.7251036540542890    0.7584204787709993    0.9660232126635981 O
   0.2749261698154958    0.2415830911312825    0.0339409918716102 O
   0.2754722331278427    0.8088498225064307    0.4663174238702550 O
   0.2819626477437723    0.2459292667299266    0.4487525063194792 O
   0.6947082051717459    0.2307034878841566    0.0509849783059402 O
