Na3 Cu2 O4
1.0
   1.4443257434704047    5.4352534659950660   -0.0006877704077816
  -1.4443255710197793    5.4352534201535052   -0.0006877638736933
   0.0000000361619714    3.3403233980896347    7.4529181249377610
Na Cu O
3 2 4
direct
   0.6217200984535274    0.6216912391175002    0.1156467607413821 Na
  -0.0000242934362164    0.0000242923856231    0.4999999995219445 Na
   0.3783086107522294    0.3782799694981865    0.8843533029149944 Na
   0.8288361849861763    0.8286950218142267    0.2787800136373942 Cu
   0.1713050571931388    0.1711637884254421    0.7212199846965438 Cu
   0.7484415684847763    0.7483301099188798    0.8035333297416669 O
   0.5846168223756690    0.5846526595498492    0.6563626437200651 O
   0.4153478081464567    0.4153824449827810    0.3436373424429527 O
   0.2516694920156580    0.2515591657308837    0.1964665307927491 O
