Na2 Mo6 P4 O28
1.0
   6.4840579337757625   -0.0000022317205265   -0.0000008447488539
  -0.0000029895061369    8.6725914432858975    0.0028650664205662
  -0.0000026592321301    3.9465328042724206    9.9709631539943544
Na Mo P O
2 6 4 28
direct
   0.2495061781985683   -0.0107081660107357    0.7702690973598794 Na
   0.7495065425447037    1.0107079233334810    0.2297314016186674 Na
   0.2499904139003748    0.7502914255776492    0.1708710185287738 Mo
   0.7499913656795058    0.2497089060796459    0.8291282923917345 Mo
   0.2499315701632522    0.3294887415014256    0.1286357249640783 Mo
   0.7499324738155967    0.6705108556971331    0.8713654392972505 Mo
   0.2498258677937305    0.7356988363111334    0.4945229911813644 Mo
   0.7498264100823121    0.2643009131090339    0.5054771028464753 Mo
   0.2501164420361360    0.3798724547079074    0.8034093779003521 P
   0.7501158043520050    0.6201267928424845    0.1965913638744844 P
   0.2500057670712638    0.3482751064050997    0.4415617505503625 P
   0.7500052142013692    0.6517284274837789    0.5584359055189719 P
   0.2494138691913590    0.5651741651389792    0.1181504248484560 O
   0.7494135402672787    0.4348256216687462    0.8818500072003943 O
   0.2500602775816197    0.9163541858058699    0.0218965931557309 O
   0.7500602820809597    0.0836427556478901    0.9781053830640943 O
   0.9385542076930898    0.7336562488837614    0.1889359193539894 O
   0.0613120078875951    0.2668157160859715    0.8109667931112208 O
   0.4385549278267516    0.2663426083331268    0.8110646281541468 O
   0.5613122522351207    0.7331841557419989    0.1890335212554637 O
   0.2498928352367404    0.8563800456994064    0.2957128961586228 O
   0.7498937680518909    0.1436201329962983    0.7042873042268900 O
   0.2499605332744596    0.8858207785978881    0.5624886745315667 O
   0.7499616453434401    0.1141791172868131    0.4375114347657764 O
   0.4664144132446568    0.2081627352559855    0.1397152568798256 O
   0.5329348319034678    0.7912055675860612    0.8603503972479214 O
   0.9664151618203601    0.7918381131368719    0.8602841933686766 O
   0.0329342478852651    0.2087945623306940    0.1396492115450534 O
   0.9393024486467395    0.7249764346531657    0.4688935403247883 O
   0.0611080389105780    0.2747726095703669    0.5312538580712421 O
   0.4393044525756770    0.2750226250124818    0.5311070949055813 O
   0.5611082723996615    0.7252265058430473    0.4687479250899617 O
   0.2505184130829675    0.5318008103416598    0.6731105851376851 O
   0.7505180595262185    0.4681976213357735    0.3268903900290227 O
   0.2504722823429826    0.4380102128814234    0.9242675100165400 O
   0.7504723464347908    0.5619899399326550    0.0757338387359179 O
   0.2504724751177971    0.2851302565710843    0.3248043366752701 O
   0.7504730049898990    0.7148716353283406    0.6751985575384505 O
   0.2501595429742838    0.5395813594241510    0.3899960218931280 O
   0.7501592256294320    0.4604183101406735    0.6100048519147717 O
