Na2 Fe2 W4 O16
1.0
   5.8296799999999998    0.0000000000000000    0.0000000000000000
   0.0000000000000000    5.0777789999999996    0.0000000000000000
   0.0000000000000000    0.1610920000000000   10.0246969999999997
Na Fe W O
2 2 4 16
direct
   0.6877440000000000    0.7500000000000000    0.4999999999999999 Na
   0.3122560000000000    0.2500000000000000    0.4999999999999999 Na
   0.6608070000000000    0.7500000000000000    0.0000000000000000 Fe
   0.3391930000000000    0.2500000000000000    0.0000000000000000 Fe
   0.1762670000000000    0.7604660000000000    0.7644400000000000 W
   0.1762670000000000    0.7395339999999999    0.2355600000000000 W
   0.8237330000000000    0.2395340000000000    0.2355600000000000 W
   0.8237330000000000    0.2604659999999999    0.7644400000000000 W
   0.1248150000000000    0.0773850000000000    0.8748829999999999 O
   0.1248150000000000    0.4226150000000001    0.1251170000000000 O
   0.8751850000000000    0.9226150000000000    0.1251170000000000 O
   0.8751850000000000    0.5773850000000000    0.8748829999999999 O
   0.0905950000000000    0.4485630000000000    0.6709779999999999 O
   0.0905950000000000    0.0514370000000000    0.3290219999999999 O
   0.9094050000000001    0.5514369999999998    0.3290219999999999 O
   0.9094050000000001    0.9485630000000000    0.6709779999999999 O
   0.3751170000000000    0.5915010000000002    0.8924720000000000 O
   0.3751170000000000    0.9084990000000001    0.1075280000000000 O
   0.6248830000000000    0.4084989999999999    0.1075280000000000 O
   0.6248830000000000    0.0915010000000000    0.8924720000000000 O
   0.6232880000000000    0.3785470000000000    0.6459210000000000 O
   0.6232880000000000    0.1214530000000000    0.3540789999999999 O
   0.3767120000000000    0.6214530000000000    0.3540789999999999 O
   0.3767120000000000    0.8785470000000000    0.6459210000000000 O
