Na10 Zr4 Mn2 F30
1.0
   3.9024709999999998  -10.7530029999999996    0.0000000000000000
   3.9024709999999998   10.7530029999999996    0.0000000000000000
   0.0000000000000000    0.0000000000000000    7.6040979999999996
Na Zr Mn F
10 4 2 30
direct
   0.2415170000000000    0.7584830000000000    0.0000000000000000 Na
   0.2415170000000000    0.7584830000000000    0.5000000000000000 Na
   0.7584830000000000    0.2415170000000000    0.0000000000000000 Na
   0.7584830000000000    0.2415170000000000    0.5000000000000000 Na
   0.6313860000000000    0.8776100000000000    0.2500000000000000 Na
   0.1223900000000000    0.3686140000000000    0.7500000000000000 Na
   0.3686140000000000    0.1223900000000000    0.7500000000000000 Na
   0.8776100000000000    0.6313860000000000    0.2500000000000000 Na
   0.5000000000000000    0.5000000000000000    0.0000000000000000 Na
   0.5000000000000000    0.5000000000000000    0.5000000000000000 Na
   0.4137640000000000    0.1432570000000000    0.2500000000000000 Zr
   0.8567430000000000    0.5862360000000000    0.7500000000000000 Zr
   0.5862360000000001    0.8567430000000001    0.7500000000000000 Zr
   0.1432570000000000    0.4137640000000000    0.2500000000000000 Zr
   0.0000000000000000    0.0000000000000000    0.0000000000000000 Mn
   0.0000000000000000    0.0000000000000000    0.5000000000000000 Mn
   0.3178130000000000    0.7066410000000000    0.7500000000000000 F
   0.2933590000000001    0.6821870000000001    0.2500000000000000 F
   0.6821870000000001    0.2933590000000001    0.2500000000000000 F
   0.7066410000000000    0.3178130000000000    0.7500000000000000 F
   0.4435330000000001    0.0773020000000000    0.4857380000000000 F
   0.9226980000000001    0.5564670000000002    0.5142620000000000 F
   0.4435330000000001    0.0773020000000000    0.0142620000000000 F
   0.9226980000000001    0.5564670000000002    0.9857380000000000 F
   0.5564670000000000    0.9226980000000000    0.5142620000000000 F
   0.0773020000000000    0.4435330000000000    0.4857380000000000 F
   0.5564670000000000    0.9226980000000000    0.9857380000000000 F
   0.0773020000000000    0.4435330000000000    0.0142620000000000 F
   0.5822680000000000    0.4364530000000000    0.7500000000000000 F
   0.5635470000000000    0.4177320000000000    0.2500000000000000 F
   0.4177320000000000    0.5635470000000000    0.2500000000000000 F
   0.4364530000000000    0.5822680000000000    0.7500000000000000 F
   0.8138790000000000    0.1393090000000000    0.7500000000000000 F
   0.8606910000000000    0.1861209999999999    0.2500000000000000 F
   0.1861210000000000    0.8606910000000001    0.2500000000000000 F
   0.1393090000000000    0.8138790000000000    0.7500000000000000 F
   0.1104810000000000    0.1104810000000000    0.7500000000000000 F
   0.8895189999999999    0.8895189999999999    0.2500000000000000 F
   0.7334250000000001    0.8657450000000001    0.9351120000000002 F
   0.1342550000000000    0.2665750000000001    0.0648880000000000 F
   0.7334250000000001    0.8657450000000001    0.5648879999999999 F
   0.1342550000000000    0.2665750000000001    0.4351120000000000 F
   0.2665750000000001    0.1342550000000000    0.0648880000000000 F
   0.8657450000000001    0.7334250000000001    0.9351120000000002 F
   0.2665750000000001    0.1342550000000000    0.4351120000000000 F
   0.8657450000000001    0.7334250000000001    0.5648879999999999 F
