Na3 Ti6 Zn6 P3 S15 O72
1.0
   8.6505673195454698   -0.0116113222377507    0.0106716107275700
  -4.3353716141837983    7.4925499111823592    0.0122475918814938
   0.0267592621007377    0.0523164173976807   22.3653872267330414
Na Ti Zn P S O
3 6 6 3 15 72
direct
   0.6647955697245449    0.3288229426870387    0.8260312927394322 Na
   0.6617011872724154    0.3339367268928892    0.3321970367978043 Na
   0.3352004462241258    0.6664400564736488    0.1604315406051104 Na
   0.0027666132155908    0.9927499797212737    0.3548264940111397 Ti
   0.9974217866104568    0.9995534500737268    0.6449147231501547 Ti
   0.9991853374074492    0.9911269187003612    0.1432974948336609 Ti
   0.6721105370142776    0.3325956483263141    0.9773371556613628 Ti
   0.3413496858229258    0.6738300918046042    0.3095507727674018 Ti
   0.3223209976395809    0.6588090926364072    0.8122779007201781 Ti
   0.9998516407251393    0.0055353316659846    0.8552850660522255 Zn
   0.6662132735691005    0.3316068707310290    0.6809658522753844 Zn
   0.6596248311767480    0.3334673839179898    0.1902386960480750 Zn
   0.6656029285866385    0.3342586080279461    0.4869500490174578 Zn
   0.3329467733529662    0.6624409430380006    0.0154863428857096 Zn
   0.3339698008745743    0.6668695910796784    0.5215444824537200 Zn
   0.2854078924589932    0.9959701299967294    0.2496207183178559 P
   0.7141376220064218    0.7151078535016369    0.2502584021419179 P
   0.0433946002771643    0.3772306200836693    0.9186640809801936 P
   0.0068422294447085    0.2891789044020547    0.2501132918433791 S
   0.2933037712185215    0.2917152210301399    0.7519940367574864 S
   0.9993581698094377    0.7098331722922028    0.7529829999007779 S
   0.7043914266662399    0.9970642089398937    0.7520538473816184 S
   0.9604784043938983    0.3326693746960061    0.5838370037084932 S
   0.3698922024537548    0.0386130251938813    0.5836679482342712 S
   0.6674510762557802    0.6283471001574968    0.5837605833993885 S
   0.9558734125790594    0.6213472306335698    0.0855154921875350 S
   0.6681599317072634    0.0445314843965039    0.0855612120637749 S
   0.3754045259726132    0.3338276520220065    0.0856562016327697 S
   0.6207680150555261    0.6599006863502583    0.9172351630366262 S
   0.3400572511663307    0.9585941336102917    0.9172318354177506 S
   0.6241061315299236    0.9619579135256425    0.4142291799497659 S
   0.3358172825333036    0.3783059070178962    0.4138077361431607 S
   0.0399056831522919    0.6594111638101915    0.4144234198042949 S
   0.1851441533536801    0.0070444512939176    0.3057455845008319 O
   0.8231688877866326    0.8191822191332156    0.3058191320166188 O
   0.9973206955653465    0.1875473514918441    0.3046210865547300 O
   0.2207468520210633    0.1828854932670254    0.8058406808159062 O
   0.9688229559865953    0.7855185934567792    0.8067418102277911 O
   0.8134724608245358    0.0313706253708092    0.8053759102070663 O
   0.7941342596731437    0.9751040723305913    0.6980275723763062 O
   0.1808757333723110    0.2061739457329392    0.6985600122409987 O
   0.0225948543039314    0.8202469804529037    0.6989185812264301 O
   0.8027167816500891    0.8301001467126254    0.1931953662476988 O
   0.0270558136167746    0.2046751064526434    0.1952348507561290 O
   0.1701480186424474    0.9739279158295341    0.1932398518799746 O
   0.8845442696538557    0.3687071969670302    0.6369408843100346 O
   0.4835227318486001    0.1145751170606616    0.6362149950523595 O
   0.6318749142522074    0.5151558011071006    0.6365929143132070 O
   0.8767513575518788    0.5145464350103873    0.1393528860770449 O
   0.6370154931227315    0.1221935652688924    0.1389088468789630 O
   0.4791195065089496    0.3615316967042668    0.1401971598417946 O
   0.4649169992161841    0.3122171736089625    0.0318030305401114 O
   0.8469484941352650    0.5342543018848782    0.0309729471861200 O
   0.6881743551260571    0.1555172256579865    0.0305170734734994 O
   0.4376863916920403    0.1519629963396945    0.5295712380901487 O
   0.7128669162138103    0.5618203261904757    0.5296556451499547 O
   0.8474561950627825    0.2883127886839224    0.5301316455569509 O
   0.5512580158037849    0.6921528575198357    0.9722861927840648 O
   0.1480432996662854    0.4577984073963457    0.9744906074548786 O
   0.3197118640701198    0.8612374905678341    0.9725868508041642 O
   0.5454830494281140    0.8543373041890228    0.4672770411843856 O
   0.3083313536816913    0.4545320626160329    0.4675065280312747 O
   0.1427555281772168    0.6879216911639747    0.4682899468412684 O
   0.1357330678893632    0.6475105714851231    0.3596846675372544 O
   0.5115789853872664    0.8653996551329561    0.3589206263825516 O
   0.3524040541643761    0.4914724255697168    0.3590909568928199 O
   0.1341814682931230    0.5065185114035196    0.8624432614994502 O
   0.3762152300497767    0.8753169624609570    0.8639989834797254 O
   0.5013947231343382    0.6280392672209336    0.8645544460493942 O
   0.0176406557671745    0.8213975857259771    0.4061476059083334 O
   0.8052129099090448    0.9851567255132301    0.4045449149948139 O
   0.1748738103413621    0.1973815113055760    0.4044118920842277 O
   0.0035516953293685    0.1916281248986980    0.9063444434042125 O
   0.1903997055368918    0.9859673596061188    0.9077376499281592 O
   0.8025016445426698    0.8009813353980174    0.9065735059466871 O
   0.9726723876359843    0.1650458033882572    0.5968418475563065 O
   0.1905809704922017    0.0267764273169237    0.5974209876022492 O
   0.8348084491675694    0.8086936974604054    0.5967873119026598 O
   0.9576653978398045    0.7975829000794827    0.0902620283657683 O
   0.8409670672712592    0.0439410241378720    0.0909247223315285 O
   0.1973178428121911    0.1629674925005294    0.0912690630336208 O
   0.6681182722563910    0.1451670671346448    0.7438715177783538 O
   0.4787326194244559    0.3320473635828859    0.7436253704481268 O
   0.8538913125294419    0.5242713277241829    0.7455691262073689 O
   0.6982132501399699    0.5333649954724162    0.2494152665291356 O
   0.8481569116432891    0.3080619917267562    0.2486241528155568 O
   0.4700449612420277    0.1588932371363483    0.2485664552285629 O
   0.6220723251606791    0.4843661021356813    0.9239438662886911 O
   0.8558481328034214    0.3724515087140643    0.9258461114957033 O
   0.5109608632597248    0.1410717289314777    0.9222403070039590 O
   0.6350961884477591    0.1365751999718074    0.4152487024268416 O
   0.4973745099496006    0.3628675178182224    0.4148674980197058 O
   0.8615194798428749    0.4991489063997907    0.4156615342628481 O
   0.3426878672260540    0.4842881960632141    0.0796364753728181 O
   0.1411156869032286    0.6616384384941496    0.0794679789267282 O
   0.5197970076059052    0.8606991097106399    0.0781491158376697 O
   0.3327999204470621    0.8568901457922435    0.5743968427831906 O
   0.5214328704715581    0.6636942183444224    0.5750192888195490 O
   0.1425512074362872    0.4780966020551576    0.5747375129362029 O
   0.2958150935509787    0.8212423748138683    0.2548660007434383 O
   0.5257135062708252    0.6992919548915870    0.2553875182559938 O
   0.1729169474207578    0.4703757511426264    0.2530510584250690 O
   0.2965369688636039    0.4675765916187308    0.7598836034446502 O
   0.1741896517300477    0.7088491647288621    0.7594946210840979 O
   0.5299315591732796    0.8253168273834275    0.7594760687967561 O
