Na5 Li1 Fe6 Si12 O36
1.0
   4.4368993711688267    8.3168804434333108   -0.0012327987105709
  -4.4369053717824221    8.3168836445578549   -0.0012317263047072
  -0.0000022904145646    3.3207157743510836    9.0323943858559357
Na Li Fe Si O
5 1 6 12 36
direct
   0.7140528433897971    0.6177543881882231    0.3330238279038603 Na
   0.9528688536077010    0.0471311422907998    0.4999999975982721 Na
   0.3822456286556432    0.2859472364011332    0.6669762138644336 Na
   0.6192808046367765    0.7141974110731222    0.8334326366519610 Na
   0.2858025701968155    0.3807191568635249    0.1665673569033360 Na
   0.0081519759841384    0.9918480451058297    0.0000000028296705 Li
   0.3170080969354204    0.0166326161156128    0.3348504907444939 Fe
   0.3497580666752581    0.6502419764677607    0.4999999664507274 Fe
   0.9833673674066677    0.6829918617841511    0.6651495722688857 Fe
   0.0189608528603878    0.3146384416483046    0.8342526537947942 Fe
   0.6485916193519484    0.3514083947356113    0.0000000111726582 Fe
   0.6853616099291332    0.9810391843450840    0.1657472910351792 Fe
   0.2600002913850940    0.9392226673600973    0.6941739553586949 Si
   0.0709996541186795    0.3944341638599418    0.4762507478160609 Si
   0.7260188633786521    0.4049879384762798    0.6448210802122456 Si
   0.9425327950708723    0.2580843372792034    0.1893673958948980 Si
   0.3942857649341912    0.0714888738821920    0.9779142246813123 Si
   0.5950120590916174    0.2739810585867663    0.3551788866946909 Si
   0.4052624511685304    0.7264915907948970    0.1427897584497760 Si
   0.6055657204194475    0.9290004852168936    0.5237492041031877 Si
   0.0607773536209808    0.7399996017355203    0.3058261599760557 Si
   0.2735083556937382    0.5947376218503591    0.8572102391243384 Si
   0.9285110612772501    0.6057142575407369    0.0220858466880754 Si
   0.7419157113153675    0.0574672199217232    0.8106325327413877 Si
   0.4369954066959599    0.9516161780251331    0.6578435729673391 O
   0.2349997789129713    0.2260444635489613    0.4099860471106263 O
   0.5719755009450278    0.9121564176156837    0.3726566126698829 O
   0.8935648593894587    0.3842922822097713    0.5104126066704278 O
   0.5577052874917692    0.5682911553267299    0.5777111498166747 O
   0.2449882162166436    0.9050633626576582    0.5419967393270669 O
   0.7195231887996237    0.2258873924806640    0.6771551320645502 O
   0.9032652480952758    0.8896672491461760    0.7421637819620198 O
   0.2372766160356183    0.5803000118849266    0.7057090440809789 O
   0.9479521168013648    0.4377933858162242    0.1553659952164530 O
   0.4197001208932137    0.7627233139842576    0.2942909759581539 O
   0.1103328536387018    0.0967348486009501    0.2578361088943208 O
   0.7741126532089018    0.2804768087717752    0.3228448621305176 O
   0.0949366991599406    0.7550117363657221    0.4580032667667676 O
   0.4317088417926959    0.4422946833055852    0.4222888832505990 O
   0.2262997553275091    0.2352909232794604    0.9104450572249208 O
   0.6157076695388688    0.1064351588787640    0.4895873973924104 O
   0.9125928211909332    0.5698338163658571    0.8716764694949750 O
   0.0878435045950906    0.4280245823531337    0.6273434298446786 O
   0.3890060271233721    0.8923881120702031    0.0091042334095350 O
   0.7739556042391644    0.7650001662381415    0.5900139868610395 O
   0.5704197025764770    0.5566972366812469    0.0776673520555485 O
   0.9095609573839558    0.2362523566479253    0.0399085173562568 O
   0.2287985139885924    0.7169878963501628    0.1730627916241593 O
   0.8965632546367349    0.9049674907705556    0.2334043982594871 O
   0.5796528789606439    0.2372013741534935    0.2049054021699316 O
   0.0483838665008139    0.5630046641996124    0.3421563848053226 O
   0.7627986816906228    0.4203470439287365    0.7950945980891841 O
   0.0950324833408664    0.1034368179710521    0.7665954072206067 O
   0.2830121143196617    0.7712015673630480    0.8269371905836713 O
   0.7637476290761268    0.0904389851304616    0.9600914330287005 O
   0.4433029066009209    0.4295802793365865    0.9223326479489379 O
   0.1076118682364940    0.6109940125621458    0.9908957739885662 O
   0.4301662668626570    0.0874070938889001    0.1283236060187933 O
   0.7647091141716237    0.7737002085462081    0.0895549183296870 O
   0.5622066067891875    0.0520478784462141    0.8446340099163179 O
