Na8 Ca12 Ta8 Ti12 O60
1.0
   5.4515505242417310    0.0006916076991243   -0.0054226303579734
  -0.0012542760705183    5.5465016782667416   -0.0005283158752125
   0.0042711489378280    0.0302557127613849   39.0559163184858917
Na Ca Ta Ti O
8 12 8 12 60
direct
   0.0042955727854102    0.9763234546348623    0.3471377212202023 Na
   0.0035055425425498    0.9749747539555073    0.5501795328843705 Na
   0.0032947906523811    0.9751192673966954    0.7504499098255264 Na
   0.0026845969051031    0.9777813212894046    0.9511873240813166 Na
   0.4998058362088341    0.4808637973132849    0.1482968458384582 Na
   0.4967515637170365    0.4824898280396820    0.5502154554376519 Na
   0.4973959081073657    0.4827536401935248    0.7505164001776412 Na
   0.4977952612203836    0.4840965505290449    0.9512343195888139 Na
   0.0059797259936581    0.9598345003852168    0.1482146608366717 Ca
   0.4978368318809763    0.4670696089359255    0.3470305252196749 Ca
   0.5103251377191634    0.5448826112359325    0.0525260990905070 Ca
   0.5073496176820196    0.5416358370326472    0.2520823067321945 Ca
   0.5095151626081028    0.5390067453185596    0.6503603160686902 Ca
   0.5073377418555139    0.5372872740501640    0.4501217840333783 Ca
   0.5095077077709643    0.5393374782050582    0.8507443780029967 Ca
   0.9903193351628879    0.0503380698246888    0.2518867420512201 Ca
   0.9897616139557541    0.0478347745177794    0.0521143237216768 Ca
   0.9897238546133323    0.0518895055357936    0.4502584502580834 Ca
   0.9887759512220067    0.0509821517528090    0.6503556769560194 Ca
   0.9894690299364526    0.0507952275780404    0.8507097819640798 Ca
   0.4946594724490357    0.0035578924524282    0.5001917125528128 Ta
   0.4957000364883675    0.0049082641303056    0.9015592675218471 Ta
   0.4948401110100749    0.0041556325429325    0.7008417381293269 Ta
   0.4941749996016668    0.0106616836721650    0.0007353768599733 Ta
   0.5003337063009388    0.0081481721603672    0.1993524032736731 Ta
   0.4972317191542611    0.0021751415723357    0.3975533836830358 Ta
   0.4949469467580724    0.0084657993580841    0.5988317369075438 Ta
   0.4949163918019901    0.0086585494565917    0.7993686293363301 Ta
   0.0092717656600700    0.5152237017079125    0.0020153546382322 Ti
   0.0056947839753751    0.5145990804207110    0.1021600980650090 Ti
   0.0099142466190117    0.5057813229857738    0.2004888189343199 Ti
  -0.0013145561029595    0.5206650834501649    0.3014855698740351 Ti
   0.0048880411088029    0.5109010774450790    0.4008957437879983 Ti
   0.9966949044379703    0.5095826177141710    0.5035506133198528 Ti
   0.0095652878146085    0.5138559806271784    0.6018529172578075 Ti
   0.9972977106553128    0.5095705282656403    0.7039723421867091 Ti
   0.0096432234886801    0.5141736805284436    0.8020840317769456 Ti
   0.9988527333825200    0.5105733364902022    0.9041403744727894 Ti
   0.4975525836073925    0.0191842440996143    0.1003121543884600 Ti
   0.4919801511627496    0.0134825581916088    0.2992403574474292 Ti
   0.0759488832469755    0.4781652559597052    0.0498812683766800 O
   0.0756105107524998    0.4772967707736742    0.2485835579377937 O
   0.0783977899594374    0.4770925027580017    0.4472817503496590 O
   0.0779984743354943    0.4788237111835978    0.6481720905428541 O
   0.0771901736109126    0.4786793583975885    0.8486909835783626 O
   0.2092469271498251    0.2021147513567639    0.3919250895628331 O
   0.2042374464516577    0.2013630273602610    0.5934283395453670 O
   0.1931911570252564    0.1942070371734031    0.1928697853593252 O
   0.2033165068775192    0.2004640766817578    0.7939116307521270 O
   0.2058552341270031    0.1985997543587459    0.1064291211225441 O
   0.2226575062232198    0.2104897918274413    0.3058656272016754 O
   0.2049902392416593    0.2034095765387842    0.5046588192685451 O
   0.2029469614855762    0.2014691943894703    0.9946426903701333 O
   0.2050016965100207    0.2031917544242441    0.7050805441017657 O
   0.2047141917887105    0.2024584631233971    0.9054183129867432 O
   0.2817104992457814    0.7094168773272282    0.1069056297881008 O
   0.2883205557748603    0.7053725908146895    0.1927434443136083 O
   0.2961146103214325    0.7022541328756265    0.3059203597943276 O
   0.3067630265313149    0.6931767336933756    0.3919217521590893 O
   0.2949981553055099    0.7026546333337444    0.5934024975648553 O
   0.2934377525298899    0.7009880227585720    0.9057206289869384 O
   0.2932487749493008    0.7021889262096376    0.7054628987545322 O
   0.2953997867026910    0.7017128824877915    0.7938726936165381 O
   0.2926648309314539    0.7021060289897741    0.5050123433569053 O
   0.2935154918016253    0.7014868803732529    0.9945833231967257 O
   0.4226374207268761    0.9746280062721487    0.0506571944343114 O
   0.4212413658360988    0.9757345429102559    0.2497939985916384 O
   0.4205320420152762    0.9765023582197330    0.6495406424381576 O
   0.4200340014247825    0.9756399029406095    0.4488543159987814 O
   0.4213978987193556    0.9760060919898611    0.8500232989715986 O
   0.5745165244941449    0.0137863967043892    0.3490497837688635 O
   0.5743185403916354    0.0162668529136246    0.1500596628624774 O
   0.5735174270316805    0.0140539328985635    0.5492780441947404 O
   0.5733985159339795    0.0139431582691039    0.7498541157759810 O
   0.5709806321687024    0.0123218077752402    0.9504867412317561 O
   0.7093002013541907    0.2824373070740737    0.0099010220321238 O
   0.7099934015099719    0.2751966378295249    0.0911578244580238 O
   0.7136574253445830    0.2795115675815518    0.2917949385206113 O
   0.7018952902135391    0.2887135825918371    0.2096027188344219 O
   0.7102516100353647    0.2808974649040659    0.6090234346205552 O
   0.7087555221634502    0.2862351843261677    0.4075377319698430 O
   0.7130426891169568    0.2790486903501091    0.4896446826463453 O
   0.7128566585326717    0.2793083973125562    0.6901792600155592 O
   0.7097830977906743    0.2813757397306487    0.8093541157618275 O
   0.7127954276213664    0.2789360083070453    0.8906808095742079 O
   0.7869358309468955    0.7801774914470144    0.0926197795977634 O
   0.7888711008551074    0.7809049563153130    0.0095842945665287 O
   0.7856380929592592    0.7797556648354668    0.6903421875678898 O
   0.7912381874877193    0.7903441521355227    0.2077668351624936 O
   0.7885097476584912    0.7772888373595425    0.2903628691982617 O
   0.7854032286836794    0.7794125599730022    0.4899385180613293 O
   0.7944984571253553    0.7856376502175276    0.4086846656967826 O
   0.7875256247651445    0.7816953958776681    0.6088085742609838 O
   0.7861475372974419    0.7791671358255513    0.8908483998625495 O
   0.7881463047999659    0.7816753947451280    0.8091125899244060 O
   0.9338858735068197    0.5146339825076554    0.1501386922727407 O
   0.9292926366773587    0.5153094604850414    0.3489782330296436 O
   0.9337582287332427    0.5142684320249181    0.5487611873665647 O
   0.9344639821069600    0.5143034469443506    0.7492084780473165 O
   0.9360590309884391    0.5138600575485200    0.9498188777404787 O
