Na9 Nb12 Si15 P3 O72
1.0
   8.9482406079978052    0.0234406793972299   -0.0170439253489536
  -4.4538216821996199    7.7162908767053358    0.0036931536667288
  -0.0438957497244836   -0.0142380179179484   22.8208765590390215
Na Nb Si P O
9 12 15 3 72
direct
   1.0013459508379372    0.6332724866073330    0.2494758609300240 Na
   0.9966912787322433    0.3615500804443627    0.7525320391622417 Na
   0.6683277411427965    0.9681085627735397    0.5814903735913022 Na
   0.0249171275257533    1.0044896829561401    0.4997374641623998 Na
  -0.0022391030985675    0.9995682306828264    0.0001742633193339 Na
   0.6436824050180356    0.3281556901501841    0.8332949328734335 Na
   0.6424863291074595    0.3072337441182356    0.3338878388282300 Na
   0.3661207970468341    0.6692075962593645    0.1661792966056389 Na
   0.3372254850827303    0.6599153024232324    0.6670405760967200 Na
   0.9987884827571933    1.0000787835819052    0.3558948040051633 Nb
   0.0054791942834668    0.0030075504672363    0.8563406160191189 Nb
  -0.0000500907451014    0.9959613544873226    0.6447909041778352 Nb
   0.0021810487677648    0.0019581021719879    0.1439323674949692 Nb
   0.6651425695171028    0.3336762688925854    0.6885068905206081 Nb
   0.6659337136022256    0.3354126371988891    0.1883646941506205 Nb
   0.6641410928640232    0.3343339196421931    0.9770339985179005 Nb
   0.6689077317356245    0.3349295626998616    0.4774159815022548 Nb
   0.3236257263848680    0.6630836039885583    0.0229407642410830 Nb
   0.3314544753301566    0.6666179734322846    0.5217447296334511 Nb
   0.3347036303096519    0.6697503319973843    0.3113993219604937 Nb
   0.3329684866523567    0.6722673068961068    0.8117301300347611 Nb
   0.2891987075494682    0.0063161588416605    0.2510659364757659 Si
   0.7127193397676062    0.7175771095718242    0.2488277186047346 Si
   0.0014480691106429    0.2873399163896805    0.2499194214575823 Si
   0.2877866345151980    0.2841786136994218    0.7514635019721346 Si
   0.9964407659290915    0.7102428423304802    0.7519856338624054 Si
   0.7106584513239471    0.9934577878593478    0.7479666096381195 Si
   0.9570669184682629    0.3375878298178632    0.5857246657919311 Si
   0.3788164840927890    0.0502198920792158    0.5811613762209988 Si
   0.6665463682088676    0.6207697244104248    0.5819277355086455 Si
   0.9527680840386956    0.6223466446620106    0.0845000526185920 Si
   0.3790041117821934    0.3343158147337503    0.0816252461439120 Si
   0.0417374424122005    0.3785560651475094    0.9153941663973952 Si
   0.3321885715524559    0.9571678979220384    0.9182838769677973 Si
   0.6231050460131066    0.9547671141482476    0.4192761594731017 Si
   0.0443600045763148    0.6663318410760846    0.4140887085339878 Si
   0.6674292973097951    0.0469526245630283    0.0819611605656654 P
   0.6181188734714748    0.6695035326312047    0.9181417300437945 P
   0.3344291128320337    0.3791370782974700    0.4164391615580046 P
   0.2001517758863678    0.0309817550688259    0.3096012123324544 O
   0.8405340742702279    0.8091803328615094    0.3055629655530279 O
   0.9810425737433549    0.1726402449330311    0.3084230435903665 O
   0.2017087229004810    0.1707663092701547    0.8111677002002035 O
   0.9814864639230469    0.8062299581762185    0.8103822489037313 O
   0.8430417560075871    0.0265472672232032    0.8028080804679070 O
   0.7890280489721107    0.9678192239309147    0.6862938003106186 O
   0.1546400314531248    0.1883507258839442    0.6963866222480484 O
   0.0144105795534150    0.8258523680035649    0.6936414504115854 O
   0.8009339656155458    0.8312839950277089    0.1900772082040080 O
   0.0215696573984971    0.1916212991980391    0.1918489511204802 O
   0.1614703311360292    0.9691580477737676    0.1941587921310559 O
   0.8777271776105718    0.3638514059637195    0.6469110533932660 O
   0.5112153851336895    0.1413899443885288    0.6368987022517372 O
   0.6509275625593697    0.5038160516842830    0.6398198643043277 O
   0.8717680037900161    0.5135556422151477    0.1452316396062467 O
   0.6524231025204917    0.1419408785854514    0.1369383110659845 O
   0.5023626753168013    0.3556538424335130    0.1385792040035315 O
   0.4702434367058414    0.3093693614357859    0.0232925312224068 O
   0.8307579239253192    0.5147163335359459    0.0286317510506935 O
   0.6799678846689673    0.1512570626130467    0.0259059729937354 O
   0.4655317445473385    0.1620671508577253    0.5220947708018399 O
   0.6809092375751433    0.5252758779189737    0.5231602344178722 O
   0.8254042335717225    0.3084749490523861    0.5304323634052548 O
   0.5329028625227149    0.6888123366887970    0.9736781633515803 O
   0.1666342949512191    0.4805896114098894    0.9722324384134197 O
   0.3213951072297359    0.8435341052330156    0.9759644204566086 O
   0.5408177496371074    0.8466134374255623    0.4800456710614686 O
   0.3255621424861727    0.4740092015058540    0.4722381174790521 O
   0.1719427750662450    0.6837588946930552    0.4693986094109986 O
   0.1267411204866008    0.6407131430597781    0.3533400134561361 O
   0.4950401807312317    0.8471418068043796    0.3638539314269156 O
   0.3437704229939696    0.4847852416525416    0.3610839204823665 O
   0.1319440190333320    0.4883071712257104    0.8556483517329094 O
   0.3494794177850008    0.8558635542450612    0.8602821366331602 O
   0.5035657632445812    0.6427382614784847    0.8633025412491587 O
   0.0312588178602135    0.8423935859635120    0.4120157722067326 O
   0.8137314051005180    0.9754654116504116    0.4101217398502340 O
   0.1700412218039783    0.1994649762015605    0.4146821599617049 O
   0.0196329825654255    0.1853957102650411    0.9117549810649924 O
   0.1564216481971896    0.9697184901856043    0.9143578634196937 O
   0.7970582935048817    0.8320164484702772    0.9109028707148439 O
   0.9671156307388958    0.1594397013745688    0.5884098345975175 O
   0.1902601640347847    0.0303771323778993    0.5911927559198422 O
   0.8371559095836062    0.8138992589626360    0.5862582248909113 O
   0.9701903682174947    0.8132101741998680    0.0875787493163596 O
   0.8328442766410509    0.0335720046966326    0.0857882381393087 O
   0.1882371218978371    0.1643952413418936    0.0895984691386679 O
   0.6964607712939452    0.1696438318954592    0.7443753689334583 O
   0.4755649187812611    0.3013924812681373    0.7421416190407256 O
   0.8291499295492116    0.5153217681780454    0.7475484966502483 O
   0.6987484862700495    0.5267413193632736    0.2434641643810216 O
   0.8319982491724486    0.3121674722927834    0.2444655881792529 O
   0.4807575088021789    0.1721966947496824    0.2424649953676370 O
   0.6406705635654391    0.5072612629574212    0.9221813628670312 O
   0.8526060282461289    0.3619520953587047    0.9231811289109543 O
   0.5030851536031344    0.1493993043322435    0.9207556024835567 O
   0.6396823975434026    0.1455439085848377    0.4217485940786939 O
   0.4971636240692863    0.3611095199049387    0.4177111042119594 O
   0.8540310903449103    0.4963612236560777    0.4232149222391733 O
   0.3641555930193143    0.5093282969412750    0.0773824312932420 O
   0.1463936048816233    0.6453536121798763    0.0768407332695272 O
   0.5070505866660573    0.8649317432522078    0.0797054223029332 O
   0.3608530110743541    0.8576020147012369    0.5761885169280863 O
   0.4981595987921623    0.6473429550301508    0.5800297968610144 O
   0.1480363065774191    0.5041854246603690    0.5757416333336439 O
   0.3047289119378068    0.8302483092373005    0.2565985436395917 O
   0.5218148634215379    0.6931403728021059    0.2577796298070298 O
   0.1701875344234486    0.4820746854735991    0.2545212642815288 O
   0.3022540324730447    0.4736620827284660    0.7568061019728696 O
   0.1671552783394676    0.6854025213947016    0.7548276961542543 O
   0.5207130969078654    0.8241192533185939    0.7576029038673178 O
