Na3 Hf9 Nb3 Si9 S9 O72
1.0
   8.9192682867808557    0.0159755111937042   -0.0454722436245011
  -4.4457979748758483    7.7361283274109240   -0.0001086312257686
  -0.1154895818112123   -0.0671200346879222   23.2189553361182917
Na Hf Nb Si S O
3 9 3 9 9 72
direct
   0.0091794591220169    0.8984677178709978    0.9965396292496784 Na
   0.5504611610272058    0.1925241551656202    0.8230057866897166 Na
   0.7039952375095362    0.3227638861838151    0.3361247860165390 Na
   0.9955471258648325   -0.0060342321170982    0.3607434684506404 Hf
   0.0135795694952249    0.0140918813615184    0.8529724267346965 Hf
   0.6510453094330872    0.3306863143802974    0.6872109293243053 Hf
   0.6721185455845705    0.3407592094535797    0.1884440920837454 Hf
   0.6511488150560879    0.3366865951923338    0.9786993689023665 Hf
   0.6714698974023797    0.3495981535320390    0.4815330899674590 Hf
   0.3168660077177786    0.6630799958645262    0.0242953478297472 Hf
   0.3122217328280445    0.6474713329003816    0.3059708528869426 Hf
   0.3479897431818903    0.6890287675177481    0.8052665972431871 Hf
   1.0032205116452206    0.0109446365046663    0.6449275650640097 Nb
   0.0026445249785259    0.0108211968252084    0.1418288126143531 Nb
   0.3297428915251143    0.6772515650839045    0.5249220026907457 Nb
   0.9845463988989749    0.2717872245297254    0.2536809174298988 Si
   0.2884233943941060    0.2930980742859364    0.7514084336605402 Si
   0.7250611716634316    0.0164604668928989    0.7499705656601178 Si
   0.3815274759188215    0.0606243669423490    0.5819827106392659 Si
   0.6731206982378833    0.6289730398496926    0.5815787317831601 Si
   0.9457072391167671    0.6159506318535840    0.0854920718983657 Si
   0.3835678084591200    0.3376179826756753    0.0844509258266392 Si
   0.3304437988992406    0.9540881711180622    0.9168452910384846 Si
   0.0394573237083594    0.6488896537160082    0.4128232941571978 Si
   0.2830117437556641   -0.0006985810948993    0.2513704857954835 S
   0.7145104475254076    0.7099901255645731    0.2524169301099596 S
   1.0003750670892753    0.7222073706338196    0.7482450574823568 S
   0.9597992028986769    0.3405625127122351    0.5821600082576373 S
   0.6659538760119099    0.0483770427098983    0.0840587742883849 S
   0.6204051659530498    0.6731237286514963    0.9176333737550192 S
   0.0444643311246862    0.3834286520799576    0.9179862669219347 S
   0.6124381151776442    0.9464691766473678    0.4149045197857386 S
   0.3424524556979701    0.3808178156270896    0.4130496582825623 S
   0.1957355736548743    0.0172837304618546    0.3024979880610703 O
   0.8227776406286345    0.7879416573488768    0.3048528880952386 O
   0.9664927156095028    0.1575545572486902    0.3100650731166961 O
   0.2111232142858980    0.1660276652091200    0.8075768891425190 O
   0.9702951120652699    0.7974613939972014    0.8008784528888080 O
   0.8337237970637452    0.0312233312542995    0.8084555258244398 O
   0.8193957355603559    0.9868931836031765    0.6937486370766753 O
   0.1678291846582830    0.1974742702224303    0.6942392057426624 O
   0.0436133695097801    0.8398350268340012    0.6981879435496499 O
   0.7993306892757017    0.8059216027601250    0.2001737575863249 O
  -0.0031767355795427    0.1651960898028798    0.1966688269087259 O
   0.1799544900465870    0.9750760634815625    0.1980431559351985 O
   0.8922211180080655    0.3843644899827207    0.6321162743802891 O
   0.5099795646074033    0.1297378746455605    0.6368158023580591 O
   0.6294971268349450    0.4972716967168515    0.6338772147447448 O
   0.8628381868280786    0.5011229608512119    0.1428724771471033 O
   0.6474077109686717    0.1254645431910333    0.1379248314080637 O
   0.4879942962137723    0.3460446884391192    0.1428306815443349 O
   0.4564585531841734    0.2832681097417928    0.0291108777873459 O
   0.8256957048674247    0.5399779419339555    0.0284640946194581 O
   0.7055712842960771    0.1625683892542324    0.0342579739011820 O
   0.4707466654030962    0.1718215416173053    0.5241120612785370 O
   0.7135464857535426    0.5530122365249718    0.5228696858750032 O
   0.8564139390140737    0.3167947545525880    0.5288199114840993 O
   0.5385296370554523    0.6938458270109701    0.9694378561274438 O
   0.1482360488833856    0.4556046173601719    0.9725266910775390 O
   0.3109525851240877    0.8369041919983200    0.9731351093579256 O
   0.5323795527245276    0.8475972373984373    0.4675033033503324 O
   0.3269059818667650    0.4651383047272687    0.4647131257971234 O
   0.1634710394218804    0.6652452966941043    0.4683292307755036 O
   0.1327036354395602    0.6266295529897199    0.3555187725393726 O
   0.5084120859489807    0.8596369129466904    0.3629339013133308 O
   0.3628375522516012    0.4826264113755831    0.3599937285264062 O
   0.1297277003727493    0.4955343046338681    0.8691191908402961 O
   0.3557640714329567    0.8734577474207671    0.8575511347364988 O
   0.5213595365480470    0.6571975883469587    0.8646562665414471 O
   0.0282016772012851    0.8242773837014967    0.4055711554367341 O
   0.7853904639929572    0.9577583093586097    0.4104298690266989 O
   0.1861398557171124    0.2063503827431998    0.4071976221863601 O
   0.0275482746582394    0.2097515617345796    0.9109360924167691 O
   0.1561685805216856    0.9715092710142956    0.9135243009731462 O
   0.7994613261940512    0.8208729440989503    0.9141500474444216 O
   0.9696178120703661    0.1815785710750150    0.5889752193159774 O
   0.1924134034221630    0.0357916062519714    0.5954404410576788 O
   0.8375961079761026    0.8180177690539119    0.5974972462231408 O
   0.9678392682695782    0.8107159764991052    0.0986072739134169 O
   0.8186068658126234    0.0183902581270529    0.0911457831976698 O
   0.1825297885645649    0.1659960159816394    0.0964488358870349 O
   0.7139966707985077    0.1913593547078829    0.7418379950039604 O
   0.4789739833946950    0.3134232102030939    0.7429080567496429 O
   0.8452184947979855    0.5566652328510178    0.7363233078022324 O
   0.6855851507126518    0.5296643589748300    0.2489694740046237 O
   0.8157686394819877    0.2952917952447741    0.2478773876480961 O
   0.4559865927291261    0.1540753706612266    0.2476804711254472 O
   0.6296208801580725    0.5097362068106208    0.9225631586284783 O
   0.8706250805606218    0.3628317679120371    0.9265725882533419 O
   0.5046018660481500    0.1466152131926231    0.9240013695445169 O
   0.6366279181765218    0.1223982914917924    0.4188945952488571 O
   0.4968219656264821    0.3577684927036756    0.4160268625322241 O
   0.8505070194529673    0.4776100383513120    0.4184447844129037 O
   0.3665417307026286    0.5044978025110604    0.0724803928343769 O
   0.1372131954741083    0.6462892671021548    0.0754660590888897 O
   0.5135702821513670    0.8787831594663943    0.0758188747114488 O
   0.3477533670684888    0.8605637952979195    0.5663773903500169 O
   0.5046832016409150    0.6532872633343860    0.5638455152935479 O
   0.1414760482991271    0.4858169953537239    0.5721485552630746 O
   0.3044181313779772    0.8447195039890451    0.2572695156745938 O
   0.5462716155339488    0.7020671800320298    0.2590369668668386 O
   0.1644250039677718    0.4568320836733557    0.2556427053970942 O
   0.2983248393109371    0.4745363968050599    0.7646591009518462 O
   0.1489818148170056    0.6947990595294257    0.7574886203165375 O
   0.5321540446068299    0.8488540590491384    0.7567643627328539 O
