Na12 Ti4 Si8 Sn4 P4 O48
1.0
  12.9040341255966879    0.0220182008117948   -8.7137501533862647
   0.0105007749613537    8.9685599532114555   -0.0074894133206420
  -0.1777669317854448   -0.0080465481028728    9.0087449564904514
Na Ti Si Sn P O
12 4 8 4 4 48
direct
   0.2451224463968054    0.7788174474071381    0.9952109166479344 Na
   0.7471417978368602    0.7302366101538837    0.5035599551309510 Na
   0.7479619887955459    0.2712045624211507    0.0031705344081413 Na
   0.2442891854241380    0.2138414295789886    0.4957690250372104 Na
   0.5035492841377024    0.1075567733350009    0.7574166885357186 Na
   0.5102182427522105    0.8927533530924811    0.2594161918013740 Na
   0.0054643483344987    0.6259220234094506    0.7623207004417896 Na
   0.0069930321112343    0.3791567055627751    0.2542831686265146 Na
   0.8203380956251011    0.9362121677979897    0.2623576010212596 Na
   0.8221869679343854    0.0639205922810644    0.7639771639751364 Na
   0.3105197856586073    0.4313639179790696    0.2372431591550368 Na
   0.3191834478609842    0.5598296884258259    0.7631631606262802 Na
   0.8949921728058831    0.7391433562466773    0.9384300901217709 Ti
   0.8947167235369156    0.2610028188241397    0.4358369926605979 Ti
   0.1033127186166707    0.2521885938354708    0.0543200940749430 Ti
   0.3942123884284204    0.2395504671976117    0.9373691208216753 Ti
   0.3558515100510326    0.8952348411494762    0.7575792607551545 Si
   0.6487246584742423    0.8908882566800874    0.7436878031241912 Si
   0.6471726976937963    0.1105320385960547    0.2430990925001564 Si
   0.3543348386907008    0.1069334674909265    0.2557373273382342 Si
   0.8572390389983383    0.3967715332911763    0.7543705599085673 Si
   0.1446360993220185    0.3896317505295798    0.7430309922120554 Si
   0.1453889266987449    0.6057242513106147    0.2424483732782944 Si
   0.8552678040251357    0.6038012350101615    0.2535752857945182 Si
   0.1025020487583959    0.7504477109923353    0.5557254596740185 Sn
   0.6031323865091158    0.2503532968529634    0.5587711282620772 Sn
   0.3979094478577678    0.7550274728138298    0.4346697767099991 Sn
   0.6023483481688688    0.7490065353332177    0.0572710488995333 Sn
  -0.0025606915334635    0.9665267632619594    0.7356231210946599 P
  -0.0009884894347152    0.0391618083066800    0.2358195449304322 P
   0.4962503884015385    0.4548674613334623    0.7382257471853692 P
   0.4985740834892728    0.5396271721660627    0.2375296405894400 P
   0.1480404901176096    0.5747634078141768    0.7436251494608573 O
   0.8552899511944567    0.5790709759255981    0.7600359174853875 O
   0.8580281329372254    0.4219422037235418    0.2613109218636575 O
   0.1510314176120299    0.4223906999323702    0.2246859133311056 O
   0.6547980203347337    0.0754356266829308    0.7423199378668243 O
   0.3498214010127933    0.0770735421346306    0.7711433334185361 O
   0.3563417211145213    0.9250409954387987    0.2490158975161685 O
   0.6570913439794616    0.9261191960198619    0.2400267191343990 O
   0.4294202508339403    0.5441333612925112    0.5571225366115569 O
   0.5527698637904778    0.5588850253653203    0.9032640063032886 O
   0.5590811932209167    0.4420219546579143    0.4085184282209791 O
   0.4368173855420841    0.4484792093782984    0.0607154942242681 O
   0.9323519124961839    0.0568228480815440    0.5562119391035478 O
   0.0533885699181857    0.0732477583682580    0.8996576824967735 O
   0.0656156267282037    0.9429204966333250    0.4089626079603914 O
   0.9354350475571814    0.9398576340064054    0.0638754270614587 O
   0.2557448845786073    0.8111190690202573    0.7326869352477406 O
   0.7554014156132939    0.8253425681439137    0.7709223630842280 O
   0.7508557539973741    0.1808203249186217    0.2639055984547138 O
   0.2481266737958533    0.1755074861869338    0.2230977707310906 O
   0.7571810455926156    0.3188790679491416    0.7356714421853053 O
   0.2516060768964515    0.3279804237785837    0.7690363588014566 O
   0.2471579272118952    0.6764387273319336    0.2566868842834084 O
   0.7524468555837976    0.6744285457432406    0.2309649439209571 O
   0.3733805715316210    0.8738751186652672    0.5967441994591596 O
   0.6415712957349096    0.8660830864839970    0.9152493555804248 O
   0.6442956464698193    0.1293058388491570    0.4209824611737282 O
   0.3696529318837771    0.1621914435129029    0.0964435854126542 O
   0.8668061151182378    0.3532422771261544    0.5846414429535552 O
   0.1406146533043766    0.3525959196472752    0.9183050144441411 O
   0.1444805652142359    0.6201768036535975    0.4228568166250224 O
   0.8670582380994144    0.6470463845831482    0.0870684228592871 O
   0.4543227493427595    0.8238151849301584    0.9486672046837163 O
   0.5492322885147424    0.8205852796709664    0.5531719078654623 O
   0.5387176680359917    0.1752242755802343    0.0598451971090380 O
   0.4523424723282992    0.1790777841408764    0.4470988942289773 O
   0.9613529817306371    0.3265791922799648    0.9380918867848532 O
   0.0396860263836569    0.3211672143671432    0.5582934000477697 O
   0.0389210187264766    0.6767361263109435    0.0619671176282131 O
   0.9517032943042504    0.6847398341536433    0.4392236509490730 O
   0.0827007172117909    0.8672469208920390    0.7440016065560794 O
   0.9195186760636977    0.8638404960454978    0.7420150891973052 O
   0.9172912622879519    0.1352244952114731    0.2405985386643055 O
   0.0765644428439913    0.1440986400812696    0.2323360859323037 O
   0.5825470020307867    0.3584868724670076    0.7476357749775983 O
   0.4176609999086314    0.3529026350160838    0.7425063619479014 O
   0.4144176037826687    0.6355255754693486    0.2384959167840605 O
   0.5807186762162315    0.6459750711192834    0.2481835857210405 O
