Na4 Co2 P8 H32 O40
1.0
  10.8475126961836636   -0.0000004471085818   -0.0000010573020287
  -0.0000002988706075    7.2518071272134872   -0.0001464457259354
  -0.0000012866459470    5.2605750069815427   10.9752581315996487
Na Co P H O
4 2 8 32 40
direct
   0.8298284038433952    0.2074537309404287    0.0406987548347058 Na
   0.3298284137365080    0.7925462778347290    0.4593012262411847 Na
   0.6702942560497793    0.2076892064088251    0.5407750993929088 Na
   0.1702942452710349    0.7923108099425995    0.9592248789096978 Na
   0.4999926607450044    0.5000354123182784    0.0000296456351644 Co
  -0.0000073430656384    0.4999645585206629    0.4999703811796703 Co
   0.7409923075399169    0.6825807439548288    0.5834471539913595 P
   0.2409923263715912    0.3174190457935724    0.9165529507841643 P
   0.5458785264520829    0.0419076360520391    0.2211652181247626 P
   0.0458784528331780    0.9580924315683961    0.2788348916227958 P
   0.9540052611153617    0.0420343713072265    0.7211114034414547 P
   0.4540051528911382    0.9579655644174363    0.7788885360887521 P
   0.7589962485374797    0.6822940861705834    0.0834991309439066 P
   0.2589962286426752    0.3177058704294851    0.4165008824981620 P
   0.0920249515833713    0.7365409149142710    0.6076554949058688 H
   0.4627368994025408    0.6553564850063072    0.7034982377304679 H
   0.0675303090324117    0.4779956854721598    0.8905963162919877 H
   0.8824483411733423    0.5157608831865496    0.8036738252342631 H
   0.6660656507907781    0.4721069575305741    0.8407829719949020 H
   0.2074606152802143    0.1418594404021907    0.2874041162602208 H
   0.1660655604046123    0.5278932542889182    0.6592168441755485 H
   0.3824483535835357    0.4842391286777972    0.6963261670590187 H
   0.9143522584857648    0.9055989060920192    0.4235029598521883 H
   0.6084978653883534    0.8972430214282765    0.4437428177326426 H
   0.5675303318454966    0.5220042478988448    0.6094036866855584 H
   0.9627369179119346    0.3446434261370570    0.7965017513024268 H
   0.5920249501339507    0.2634590357133764    0.8923445038122879 H
   0.1084978975052997    0.1027570577562989    0.0562571469860938 H
   0.4143521750239775    0.0944011503587299    0.0764970769420542 H
   0.7074605979359273    0.8581405138671663    0.2125958711599604 H
   0.2924778721994536    0.1419678984466838    0.7874432713079127 H
   0.5855246794090828    0.9060738573766619    0.9234393684923196 H
   0.8914662385946296    0.8970102997473768    0.9436544217972264 H
   0.4083022436524242    0.7361524254349343    0.1077719885109920 H
   0.0373636580649630    0.6551919596052251    0.2037135845284027 H
   0.4326249863366045    0.4778493977684075    0.3904106897688749 H
   0.3914662243500019    0.1029896969311753    0.5563455403611290 H
   0.0855246972590373    0.0939261777602280    0.5765606374047223 H
   0.6174807401625617    0.5160384429344471    0.3034893866470748 H
   0.8337423012815831    0.4720443844486852    0.3407660186358042 H
   0.7924778718500654    0.8580320481621635    0.7125567377951199 H
   0.3337423042149386    0.5279556644838113    0.1592339728361993 H
   0.1174807463844754    0.4839615425776012    0.1965106361283047 H
   0.9326250365447676    0.5221506407200098    0.1095893352412280 H
   0.5373636468240247    0.3448080077833489    0.2962864271281535 H
   0.9083022256265003    0.2638476285853417    0.3922280082092772 H
   0.6698966921686766    0.8909454123557683    0.5133481316409545 O
   0.7577690273572436    0.6515879271099345    0.7160356567343823 O
   0.1553699381767476    0.4934962054374025    0.9188055713353007 O
   0.5301199720502827    0.2721887519593228    0.1781516147891823 O
   0.4440809553406306    0.5899246567351613    0.6478377922902275 O
   0.1302581044485636    0.6363016147164062    0.5834133495526653 O
   0.8614318095795728    0.6870470230979966    0.5177111940874860 O
   0.3614317356312371    0.3129529169781949    0.9822887676907913 O
   0.6302580171533855    0.3636983162547970    0.9165867971602084 O
   0.9440809337449509    0.4100753771585008    0.8521622238600435 O
   0.9589830675615211    0.0292348663260877    0.3598244209406048 O
   0.1846198313320744    0.9929059163499091    0.3068726588395047 O
   0.6553699045711039    0.5065038753586428    0.5811944211481991 O
   0.0183108917056116    0.0917435517958365    0.1453526053341875 O
   0.2577690188787703    0.3484120230638676    0.7839644292135406 O
   0.5183109393760714    0.9082564579536571    0.3546473786327311 O
   0.6846198355759178    0.0070942380094494    0.1931273197268014 O
   0.1698967623929517    0.1090546338290591    0.9866518107044523 O
   0.4589831182542181    0.9707650206546614    0.1401756369859369 O
   0.9698436814981689    0.2720534775745198    0.6781875156887435 O
   0.0301200165073577    0.7278113146857603    0.3218483423005510 O
   0.5408580285238903    0.0294717395549281    0.8597572238719465 O
   0.8298774046181467    0.8907871922443692    0.0130900583987687 O
   0.3152955252735229    0.9930141174780376    0.8067318687535204 O
   0.4817864243406040    0.0917522541911774    0.6454130727426811 O
   0.7422348037315191    0.6516429581236014    0.2160378115824443 O
   0.9817865020293274    0.9082476212486771    0.8545869789957387 O
   0.3448156139060853    0.4935742823973759    0.4187116109395046 O
   0.8152957290546127    0.0069859309168664    0.6932681430846740 O
   0.0408580834228215    0.9705281834395837    0.6402427079661159 O
   0.0558845043060344    0.5897452228955299    0.1480126041704718 O
   0.3695750730472749    0.6363635823430834    0.0834293015436136 O
   0.6383796031413989    0.6865420717284501    0.0180404240241848 O
   0.1383796271622482    0.3134577805000627    0.4819596109082138 O
   0.8695750646021291    0.3636362690927802    0.4165707205853852 O
   0.5558844995751974    0.4102547671275205    0.3519874192376796 O
   0.4698436328217974    0.7279462483105210    0.8218125350781018 O
   0.8448156015514418    0.5064256941430795    0.0812883900203074 O
   0.2422347707986022    0.3483570418950037    0.2839621322937510 O
   0.3298774710871263    0.1092128133091869    0.4869099610263205 O
