Ba4 Na2 Nb10 O30
1.0
  12.6454369999999994    0.0000000000000000    0.0000000000000000
   0.0000000000000000   12.6454369999999994    0.0000000000000000
   0.0000000000000000    0.0000000000000000    4.1439029999999999
Ba Na Nb O
4 2 10 30
direct
   0.3294310000000000    0.8294309999999999    0.1830140000000000 Ba
   0.8294309999999999    0.6705689999999999    0.1830140000000000 Ba
   0.1705690000000000    0.3294310000000000    0.1830140000000000 Ba
   0.6705689999999999    0.1705690000000000    0.1830140000000000 Ba
   0.4999999999999999    0.4999999999999999    0.1357810000000000 Na
   0.0000000000000000    0.0000000000000000    0.1357810000000000 Na
   0.0000000000000000    0.4999999999999999    0.6716100000000000 Nb
   0.4999999999999999    0.0000000000000000    0.6716100000000000 Nb
   0.7917320000000000    0.9242219999999999    0.6773300000000000 Nb
   0.2082680000000000    0.0757780000000000    0.6773300000000000 Nb
   0.0757780000000000    0.7917320000000000    0.6773300000000000 Nb
   0.9242219999999999    0.2082680000000000    0.6773300000000000 Nb
   0.5757780000000000    0.7082680000000000    0.6773300000000000 Nb
   0.7082680000000000    0.4242219999999999    0.6773300000000000 Nb
   0.2917320000000000    0.5757780000000000    0.6773300000000000 Nb
   0.4242219999999999    0.2917320000000000    0.6773300000000000 Nb
   0.0000000000000000    0.4999999999999999    0.2249880000000000 O
   0.4999999999999999    0.0000000000000000    0.2249880000000000 O
   0.7042339999999999    0.4220800000000000    0.2312690000000000 O
   0.2957660000000000    0.5779199999999999    0.2312690000000000 O
   0.5779199999999999    0.7042339999999999    0.2312690000000000 O
   0.4220800000000000    0.2957660000000000    0.2312690000000000 O
   0.0779200000000000    0.7957659999999999    0.2312690000000000 O
   0.7957659999999999    0.9220799999999999    0.2312690000000000 O
   0.2042340000000000    0.0779200000000000    0.2312690000000000 O
   0.9220799999999999    0.2042340000000000    0.2312690000000000 O
   0.8586130000000000    0.0683450000000000    0.7420200000000000 O
   0.1413870000000000    0.9316550000000000    0.7420200000000000 O
   0.9316550000000000    0.8586130000000000    0.7420200000000000 O
   0.0683450000000000    0.1413870000000000    0.7420200000000000 O
   0.4316550000000000    0.6413870000000000    0.7420200000000000 O
   0.6413870000000000    0.5683449999999999    0.7420200000000000 O
   0.5059869999999999    0.1567690000000000    0.7312740000000000 O
   0.1567690000000000    0.4940130000000000    0.7312740000000000 O
   0.8432309999999998    0.5059869999999999    0.7312740000000000 O
   0.4940130000000000    0.8432309999999998    0.7312740000000000 O
   0.0059870000000000    0.3432310000000000    0.7312740000000000 O
   0.9940129999999999    0.6567689999999999    0.7312740000000000 O
   0.3432310000000000    0.9940129999999999    0.7312740000000000 O
   0.6567689999999999    0.0059870000000000    0.7312740000000000 O
   0.7811939999999999    0.2811940000000000    0.7235610000000000 O
   0.2811940000000000    0.2188060000000000    0.7235610000000000 O
   0.7188059999999998    0.7811939999999999    0.7235610000000000 O
   0.2188060000000000    0.7188059999999998    0.7235610000000000 O
   0.5683449999999999    0.3586130000000000    0.7420200000000000 O
   0.3586130000000000    0.4316550000000000    0.7420200000000000 O
