Na24 Ti3 Zn9 P18 O72
1.0
   9.0254397638911730   -0.0000000717017893   -0.0000016879083531
  -4.5127199440412049    7.8162570844530483   -0.0000006924970480
  -0.0000040968217429   -0.0000043060326503   21.8982098857628174
Na Ti Zn P O
24 3 9 18 72
direct
   0.6336210159530277    1.0003331469676131    0.2520769935269014 Na
   0.3667074470990649    0.3663714103970267    0.2520754828490097 Na
  -0.0003305182860369    0.6332960067574982    0.2520707018448341 Na
   0.6497947369078592    0.6412583742993203    0.7408308765783395 Na
   0.9914662711301976    0.3501892596387650    0.7408380899465986 Na
   0.3587248648399876    0.0085295552457237    0.7408292864356295 Na
   0.2920729194210139    0.3343213682560500    0.5795022873938134 Na
   0.0422299182539399    0.7079096913452833    0.5795080105228737 Na
   0.6656804554108411    0.9577538373448461    0.5795023199777264 Na
   0.2907903934060737    0.9569644581231121    0.0900767422412787 Na
   0.6661779570310041    0.7092197234905202    0.0900871426202904 Na
   0.0430471158323360    0.3338308624175358    0.0900936178548625 Na
   0.9736667882583609    0.6784831579025615    0.9117847729643997 Na
   0.7047998629129455    0.0263167065792984    0.9117929031251314 Na
   0.3215221175238501    0.2951853653708886    0.9117795709635848 Na
   0.9841996870320685    0.3074978356954763    0.4025543496775275 Na
   0.3233085100061302    0.0157874613886800    0.4025605350165434 Na
   0.6924837059581929    0.6766871864487721    0.4025585492919971 Na
  -0.0000002636771140   -0.0000030257723130    0.4963395666380492 Na
  -0.0000097040761662   -0.0000005180635477    0.0006718652061075 Na
   0.6666595150264435    0.3333298260590117    0.8281009104064433 Na
   0.6666734301774420    0.3333325833074691    0.3298742957210054 Na
   0.3333432730606349    0.6666688045656392    0.1689426964383259 Na
   0.3333414769103231    0.6666664247331170    0.6617080019502526 Na
   0.6666647264474035    0.3333301402371053    0.9837291178553946 Ti
   0.6666740080738773    0.3333314809174158    0.4834452009202387 Ti
   0.3333412705287570    0.6666684893241663    0.8159864414580742 Ti
   0.0000062693640747   -0.0000030178112761    0.3454772285101421 Zn
  -0.0000113410739222   -0.0000040659251090    0.8460538846187277 Zn
  -0.0000083635093400   -0.0000012482132429    0.6492976597967020 Zn
   0.0000076824807377    0.0000013323435550    0.1562090403632338 Zn
   0.6666760371215738    0.3333351907721377    0.6807870732068207 Zn
   0.6666615393186093    0.3333356657026068    0.1863895966570347 Zn
   0.3333430336441878    0.6666668698776467    0.0186765691430434 Zn
   0.3333240360161291    0.6666638255420601    0.5125817112992022 Zn
   0.3333278238606113    0.6666698547550435    0.3171600622885060 Zn
   0.2971961950465118    0.9968052714369461    0.2491796886430186 P
   0.6996168932461034    0.7028020753362402    0.2491820472074815 P
   0.0031975788427076    0.3003883594795930    0.2491792402914566 P
   0.2960732784315910    0.3029346762317794    0.7517674444492638 P
   0.0068545666264219    0.7039125269971876    0.7517705485273933 P
   0.6970621741599540    0.9931447575024511    0.7517692460497135 P
   0.9598035274339649    0.3321117909791990    0.5857155896797440 P
   0.3723152728319402    0.0401965420613593    0.5857172854360756 P
   0.6678926873009070    0.6276855696497228    0.5857176813926160 P
   0.9592180668279925    0.6251222512695775    0.0836218719684337 P
   0.6659048983420894    0.0407825198320167    0.0836203210992898 P
   0.3748820000349174    0.3340991100545203    0.0836217626189062 P
   0.6263736141291297    0.6624278656447863    0.9193110250279609 P
   0.0360586563741044    0.3736266460952749    0.9193140594555154 P
   0.3375744039254891    0.9639440764445508    0.9193135937969689 P
   0.6320390761855248    0.9698794077146450    0.4197100711937529 P
   0.3378348766051619    0.3679494394032456    0.4197125058089133 P
   0.0301175016647000    0.6621643331320052    0.4197111653312968 P
   0.2058986798337264    0.0086375910515383    0.3070321992383164 O
   0.8027451311487178    0.7941000432882308    0.3070351188115810 O
   0.9913845926418248    0.1972629008517322    0.3070310100150115 O
   0.2094050292053451    0.2004901703076249    0.8099401256906016 O
   0.9910694293291784    0.7905786418947429    0.8099422087208257 O
   0.7995126389938947    0.0089467697910639    0.8099423233205469 O
   0.7758118856163860    0.9624052277049037    0.6939381324105497 O
   0.1865788503754527    0.2241866300191835    0.6939363035788337 O
   0.0375818488535264    0.8133961546358454    0.6939379838046285 O
   0.7860570693902597    0.8039063095374969    0.1898605338384352 O
   0.0178694819772505    0.2139573439248327    0.1898567663576569 O
   0.1960925934245106    0.9821231525658405    0.1898569096773152 O
   0.8748444500573125    0.3393826349808834    0.6455572614344963 O
   0.4645395931033391    0.1251666592452154    0.6455587424327703 O
   0.6606465826513922    0.5354702480404154    0.6455606451795733 O
   0.8698558818897275    0.5261315709348793    0.1410313189199094 O
   0.6562620743057834    0.1301542629615291    0.1410239566892521 O
   0.4738700299162534    0.3437336102562651    0.1410317017138432 O
   0.4851048768311824    0.3335487748746725    0.0249365755687959 O
   0.8484492741055967    0.5148842131339929    0.0249355654930835 O
   0.6664420881648532    0.1515360918736446    0.0249296703781658 O
   0.4839253728751563    0.1525119290290483    0.5302337314163826 O
   0.6686086028946183    0.5160845517167949    0.5302336450126631 O
   0.8474949431687994    0.3313934033741514    0.5302290182840234 O
   0.5434371762178319    0.6769076442653451    0.9778154693756634 O
   0.1334716254986667    0.4565720109381209    0.9778184298515031 O
   0.3231073924057388    0.8665391517508962    0.9778202116660961 O
   0.5484810244743664    0.8665522161071374    0.4782076284627242 O
   0.3180600611198128    0.4515083390389219    0.4782091892344073 O
   0.1334510636889431    0.6819529917042986    0.4782083069885226 O
   0.1089269712779389    0.6277143003319966    0.3626712035639248 O
   0.5187698466853723    0.8910701254283343    0.3626716818224618 O
   0.3722728176147471    0.4812062936347158    0.3626719319846098 O
   0.1399356575496963    0.4904594479751662    0.8628020325392368 O
   0.3505482221906931    0.8600719378648711    0.8628034273723542 O
   0.5095409682076237    0.6494518420412779    0.8627974237738915 O
   0.0072758479911441    0.8202335876889192    0.4149149486156877 O
   0.8129452291870488    0.9927142508549329    0.4149150063235442 O
   0.1797639726932096    0.1870380703915301    0.4149211568059862 O
   0.0120396947703230    0.1926385768458042    0.9139216932468256 O
   0.1806031115174725    0.9879571288770882    0.9139193853519068 O
   0.8073598901035781    0.8194017775402593    0.9139174825342877 O
   0.9679615854908065    0.1649712259152965    0.5803706286458119 O
   0.1970173531727514    0.0320347121319164    0.5803660454314672 O
   0.8350272101262722    0.8029886046136130    0.5803658121727120 O
   0.9671026314623115    0.7986507022838460    0.0765991968005807 O
   0.8315532437657356    0.0329024899642598    0.0766094105533371 O
   0.2013496611655888    0.1684527415777467    0.0766074069262852 O
   0.6726021829246115    0.1505599251010104    0.7494168858797317 O
   0.4779410568595143    0.3273814766681460    0.7494184188953196 O
   0.8494372175811734    0.5220381121248534    0.7494246856393605 O
   0.6825424070302502    0.5223590511719483    0.2502559991130279 O
   0.8398254866906464    0.3174536331179852    0.2502546402865137 O
   0.4776371586615192    0.1601770653081308    0.2502514819541171 O
   0.6385014471256271    0.4945546872891110    0.9166274465446886 O
   0.8560625319039215    0.3615056934630483    0.9166237453431152 O
   0.5054486893340564    0.1439441790576640    0.9166232904311153 O
   0.6547502316385069    0.1561431223969259    0.4246857182273735 O
   0.5013891469608556    0.3452436365314741    0.4246885420392900 O
   0.8438570645218435    0.4986089643572786    0.4246891219739209 O
   0.3554194105600104    0.4946399333585855    0.0817830701235126 O
   0.1392216291585086    0.6445868361840763    0.0817847268939826 O
   0.5053676869040211    0.8607766379658782    0.0817858157338535 O
   0.3521773977537878    0.8599760936838280    0.5836360232554383 O
   0.5078100292725739    0.6478190334792528    0.5836366987608747 O
   0.1400241755686586    0.4921923504758161    0.5836321921257951 O
   0.3145680413161160    0.8339739870493602    0.2503805268474432 O
   0.5194176094525025    0.6854355030592513    0.2503786826487659 O
   0.1660267567701382    0.4805941037689283    0.2503754305037695 O
   0.3154432420615260    0.4879741856108480    0.7570492115461981 O
   0.1725300445810165    0.6845515593123536    0.7570529471437758 O
   0.5120264843587043    0.8274687053828516    0.7570533506164557 O
