Na6 Gd2 Ti4 Nb4 O24
1.0
   5.4834709593306368   -0.0010634890694264   -0.0071878269599187
  -0.0009582791862428    5.6071312296319782   -0.0037878088902466
   0.0149129324173175    0.0086720434758618   15.5944797878527766
Na Gd Ti Nb O
6 2 4 4 24
direct
   0.0032300849171696    0.9771593071172524    0.3722536195810360 Na
   0.0028726410033825    0.9772803559767955    0.8777911906362211 Na
   0.4965020058318281    0.4771271334015356    0.8780208123794818 Na
   0.4970389007438827    0.4774130321769381    0.3720552447215671 Na
   0.5050422064871742    0.5259732103405960    0.6249755766316698 Na
   0.9952910462423823    0.0259004539390953    0.6249955755127219 Na
   0.5088630884810257    0.5551758939749607    0.1250815920135127 Gd
   0.9907463704849320    0.0554372658315210    0.1249901094931659 Gd
   0.0099900314277999    0.5223447496361681    0.9979316488984546 Ti
   0.4894092279542573    0.0222724810786657    0.9977611512914371 Ti
   0.4895141012535137    0.0220430608440790    0.2522187112235478 Ti
   0.0098773135944520    0.5222878153391355    0.2523380366796693 Ti
   0.0013080165987290    0.4968483703852852    0.4979673861632645 Nb
   0.4998208314322459    0.9957775984762147    0.7521455122243451 Nb
   0.5022626992634149    0.9976256228916223    0.4980541656950008 Nb
   0.9981325519138210    0.4963206965502414    0.7521491365886204 Nb
   0.0868826221229573    0.4655806326358738    0.1249299614154925 O
   0.0687328086531681    0.4868087472161831    0.6249583728194854 O
   0.2087066926617904    0.2121920326896038    0.4802511289947674 O
   0.2045655744416411    0.1954440731972037    0.2601007923909514 O
   0.2099263974559790    0.2129828144265474    0.7697022325546806 O
   0.2045316150524061    0.1953934046894692    0.9897887934590197 O
   0.2900229486652600    0.7125336910530311    0.4802155190763668 O
   0.2910147444811101    0.7126795819476258    0.7697615783837694 O
   0.2955682168944525    0.6954240598172219    0.2600187997616146 O
   0.2955001947206596    0.6954948173520555    0.9899354775054139 O
   0.4134325423987665    0.9659168208413876    0.1249805306274515 O
   0.4312249508012636    0.9867203575769598    0.6249948089476867 O
   0.5677697504137142    0.0138890087831634    0.8792911620233747 O
   0.5674094931526975    0.0137402038854000    0.3707152937992144 O
   0.7087389370943532    0.2738054473638108    0.0296856904120937 O
   0.7088080107459747    0.2737573982561612    0.2202736436137525 O
   0.7077646829045605    0.2915011816470804    0.5158130365519701 O
   0.7086698037953445    0.2917327909077889    0.7340514405909222 O
   0.7914598851221422    0.7737222971387376    0.0297342680840149 O
   0.7913532654447352    0.7736576622556173    0.2202222679717039 O
   0.7910405986205408    0.7912697598529399    0.5158708416871077 O
   0.7921999052316622    0.7918782509339033    0.7341111775741167 O
   0.9322941843897972    0.5138448695580959    0.3706371084841101 O
   0.9325086641920367    0.5139449283789876    0.8792591973768079 O
