Na4 Co4 F16
1.0
   5.0153530000000002    0.0000000000000000    0.0000000000000000
   0.0000000000000000    5.6784590000000001    0.0000000000000000
   0.0000000000000000    0.0000000000000000   10.9969210000000004
Na Co F
4 4 16
direct
   0.0000000000000000    0.0000000000000000    0.0000000000000000 Na
   0.5000000000000000    0.5000000000000000    0.5000000000000000 Na
   0.0000000000000000    0.0000000000000000    0.5000000000000000 Na
   0.5000000000000000    0.5000000000000000    0.0000000000000000 Na
   0.0000000000000000    0.3447260000000000    0.2500000000000000 Co
   0.0000000000000000    0.6552740000000000    0.7500000000000000 Co
   0.5000000000000000    0.1552740000000000    0.7500000000000000 Co
   0.5000000000000000    0.8447260000000001    0.2500000000000000 Co
   0.1605010000000000    0.3254290000000001    0.1011990000000000 F
   0.8394990000000000    0.6745710000000000    0.8988009999999999 F
   0.3394990000000000    0.1745710000000000    0.6011989999999999 F
   0.8394990000000000    0.3254290000000001    0.3988010000000000 F
   0.6605010000000000    0.8254290000000000    0.3988010000000000 F
   0.1605010000000000    0.6745710000000000    0.6011989999999999 F
   0.6605010000000000    0.1745710000000000    0.8988009999999999 F
   0.3394990000000000    0.8254290000000000    0.1011990000000000 F
   0.2471990000000000    0.0849650000000000    0.3136650000000000 F
   0.7528010000000001    0.9150350000000002    0.6863349999999999 F
   0.2528010000000000    0.4150350000000000    0.8136649999999999 F
   0.7528010000000001    0.0849650000000000    0.1863350000000000 F
   0.7471989999999999    0.5849650000000000    0.1863350000000000 F
   0.2471990000000000    0.9150350000000002    0.8136649999999999 F
   0.7471989999999999    0.4150350000000000    0.6863349999999999 F
   0.2528010000000000    0.5849650000000000    0.3136650000000000 F
