Na2 Nd2 Ti2 Nb2 O12 F2
1.0
  -3.6135989999999998    3.7991980000000001    5.1711830000000001
   3.6135989999999998   -3.7991980000000001    5.1711830000000001
   3.6135989999999998    3.7991980000000001   -5.1711830000000001
Na Nd Ti Nb O F
2 2 2 2 12 2
direct
   0.5000000000000000   -0.0000000000000000    0.0000000000000000 Na
   0.5000000000000000    0.5000000000000000    0.5000000000000000 Na
   0.5000000000000000    0.0000000000000000    0.5000000000000000 Nd
   0.0000000000000000    0.0000000000000000    0.0000000000000000 Nd
  -0.0000000000000000    0.5000000000000000   -0.0000000000000000 Ti
   0.0000000000000001    0.0000000000000000    0.5000000000000000 Ti
   0.0000000000000000    0.5000000000000000    0.5000000000000000 Nb
   0.5000000000000000    0.5000000000000000    0.0000000000000000 Nb
   0.9213220000000000    0.1713220000000000    0.7500000000000000 O
   0.3165290000000001    0.5665289999999999    0.7500000000000000 O
   0.9367350000000001    0.5825200000000000    0.7653060000000002 O
   0.3172140000000001    0.1714290000000000    0.7346940000000000 O
   0.9367350000000000    0.1714290000000000    0.3542160000000000 O
   0.3172139999999999    0.5825200000000000    0.1457840000000000 O
   0.0786780000000000    0.8286780000000000    0.2499999999999999 O
   0.6834710000000001    0.4334710000000000    0.2500000000000001 O
   0.0632650000000000    0.4174800000000001    0.2346940000000001 O
   0.6827870000000000    0.8285709999999999    0.2653059999999999 O
   0.0632650000000000    0.8285709999999999    0.6457840000000000 O
   0.6827870000000000    0.4174800000000000    0.8542160000000000 O
   0.6225180000000000    0.8725179999999999    0.7500000000000000 F
   0.3774830000000000    0.1274830000000000    0.2500000000000000 F
