Na4 Y4 Ti4 O16
1.0
   5.3036479999999999    0.0000000000000000    0.0000000000000000
   0.0000000000000000    5.4398320000000000    0.0000000000000000
   0.0000000000000000    0.0000000000000000   12.4712660000000000
Na Y Ti O
4 4 4 16
direct
   0.7500000000000000    0.9983490000000000    0.5865720000000000 Na
   0.7500000000000000    0.4983489999999999    0.4134280000000000 Na
   0.2500000000000000    0.0016510000000000    0.4134280000000000 Na
   0.2500000000000000    0.5016510000000000    0.5865720000000000 Na
   0.7500000000000000    0.9747040000000000    0.8939190000000000 Y
   0.7500000000000000    0.4747040000000001    0.1060810000000000 Y
   0.2500000000000000    0.5252960000000000    0.8939190000000000 Y
   0.2500000000000000    0.0252960000000000    0.1060810000000000 Y
   0.2500000000000000    0.0086430000000000    0.7375370000000000 Ti
   0.7500000000000000    0.4913570000000000    0.7375370000000000 Ti
   0.2500000000000000    0.5086430000000000    0.2624630000000000 Ti
   0.7500000000000000    0.9913570000000000    0.2624630000000000 Ti
   0.2500000000000000    0.5489620000000000    0.4023670000000000 O
   0.7500000000000000    0.4510379999999999    0.5976330000000000 O
   0.2500000000000000    0.0489620000000000    0.5976330000000000 O
   0.7500000000000000    0.9510380000000000    0.4023670000000000 O
   0.2500000000000000    0.4276590000000001    0.0639540000000000 O
   0.7500000000000000    0.5723410000000000    0.9360460000000000 O
   0.2500000000000000    0.9276590000000000    0.9360460000000000 O
   0.7500000000000000    0.0723410000000000    0.0639540000000000 O
   0.4999999999999999    0.7500000000000000    0.7564590000000000 O
   0.0000000000000000    0.2500000000000000    0.2435410000000000 O
   0.4999999999999999    0.2500000000000000    0.2435410000000000 O
   0.0000000000000000    0.7500000000000000    0.7564590000000000 O
   0.0000000000000000    0.7500000000000000    0.2104690000000000 O
   0.4999999999999999    0.2500000000000000    0.7895310000000000 O
   0.0000000000000000    0.2500000000000000    0.7895310000000000 O
   0.4999999999999999    0.7500000000000000    0.2104690000000000 O
