Na15 Cr3 P6 O24 F6
1.0
   5.3578149312474359   -9.2800091446385942    0.0000000028690318
   5.3578158259451794    9.2800096611925724   -0.0000000999706065
  -0.0000000613145913   -0.0000000374918410    6.7663953659338629
Na Cr P O F
15 3 6 24 6
direct
   0.6666671408449535    0.3333333118475146    0.5724354120120635 Na
  -0.0000000104807119   -0.0000000013445378    0.5000005725633455 Na
   0.3333331503903228    0.6666668437764435    0.4275133078316037 Na
   0.6666668934368759    0.3333330309447864    0.0154438494193575 Na
   0.1719611147746062    0.8559239976652766    0.2400099508523330 Na
   0.3160212389742685    0.1719641098942605    0.7599964314013268 Na
   0.5000003601535711    0.4999998943094607    0.5000023014514936 Na
   0.1440773496119045    0.3160373593359416    0.2400093738120122 Na
   0.8280364165269383    0.1440571317406297    0.7599959857262960 Na
   0.6839621595048999    0.8280379279996649    0.2400092236053032 Na
   0.5000001316690676    0.0000004674639469    0.5000023204134578 Na
   0.3333330539136468    0.6666667497104737    0.9845535452653061 Na
  -0.0000000094513150    0.0000000091032049    0.0000008590192018 Na
   0.8559416669014005    0.6839787895294980    0.7599963240478105 Na
  -0.0000004488554438    0.4999996558412236    0.5000022607665799 Na
   0.0000021584600931    0.5000025926470446    0.0000001860973319 Cr
   0.4999973097630270    0.4999995789304674    0.0000004286716407 Cr
   0.5000003370168615   -0.0000022296348351    0.0000001765955490 Cr
   0.8142987495350217    0.1831228589987410    0.2505201049928776 P
   0.8168751982172319    0.6311738214073956    0.2505188894217403 P
   0.3688253377618140    0.1857027611606840    0.2505183399084431 P
   0.1831308921552798    0.3688500222113348    0.7494878389884188 P
   0.6311501403135201    0.8142794547122699    0.7494889811628380 P
   0.1857192381903527    0.8168709542082085    0.7494864831179263 P
   0.7403121201295880    0.1709267933745900    0.4497637345234018 O
   0.4222178728429594    0.0751159651106714    0.2123388604368582 O
   0.8290746276091412    0.5693848950906114    0.4497639182182168 O
   0.3470966520145327    0.4222165831040578    0.7877010564126509 O
   0.8926704669078597    0.0949312540883049    0.2453522551180481 O
   0.1709164181181413    0.4306041385991493    0.5502360701844728 O
   0.2596863376787803    0.8290821833892691    0.5502361979187448 O
   0.7977191553861973    0.8926703082055345    0.7546806057948331 O
   0.4306140605260505    0.2596875478489908    0.4497642840545148 O
   0.5672069152269956    0.7042267844327942    0.9254652140753673 O
   0.4327959032832366    0.2957741339643859    0.0745163339518058 O
   0.5693968321243121    0.7403141333897831    0.5502361972994292 O
   0.7042225334396154    0.1370185831307543    0.0745165886230088 O
   0.6528991201881122    0.5777821871201257    0.2123390622562006 O
   0.9248825348098479    0.3471019580107927    0.2123374915298599 O
   0.5777834228230317    0.9248821489848121    0.7876996611033601 O
   0.9050691991251992    0.7977399452887249    0.2453531697141297 O
   0.8629813275106163    0.5672043627943131    0.0745139724277627 O
   0.1073322320679466    0.9050500423156888    0.7546819035503969 O
   0.0751190088656729    0.6529020848157253    0.7877032581594178 O
   0.0949495767165180    0.2022810185343605    0.7546809575029038 O
   0.1370170835532331    0.4327943332848431    0.9254683926505594 O
   0.2957760830287449    0.8629828807081793    0.9254664220153144 O
   0.2022593101700821    0.1073269836237591    0.2453538598478824 O
   0.6227981675476376    0.4815345811628595    0.7983305572940373 F
   0.3771907999976347    0.5184685185839241    0.2016807075470014 F
   0.8587384513815302    0.3772030262885585    0.7983287693590624 F
   0.4815322259359660    0.8587223604819429    0.2016819208661242 F
   0.5184646866413997    0.1412639084135661    0.7983292280123784 F
   0.1412759988963138    0.6228078748557972    0.2016818581641198 F
