Y6 Mg6 Se18
1.0
   6.9139479999999995    0.0000000000000000    0.0000000000000000
  -3.4569739999999989    5.9876550000000002    0.0000000000000000
   0.0000000000000000    0.0000000000000000   19.3044459999999987
Y Mg Se
6 6 18
direct
   0.0000000000000000    0.0000000000000000    0.3473739999999990 Y
   0.0000000000000000    0.0000000000000000    0.6526259999999990 Y
   0.6666670000000000    0.3333330000000000    0.6807070000000000 Y
   0.6666670000000000    0.3333330000000000    0.9859589999999990 Y
   0.3333330000000000    0.6666670000000000    0.0140410000000000 Y
   0.3333330000000000    0.6666670000000000    0.3192930000000000 Y
   0.0000000000000000    0.0000000000000000    0.1612869999999990 Mg
   0.0000000000000000    0.0000000000000000    0.8387129999999990 Mg
   0.6666670000000000    0.3333330000000000    0.4946200000000001 Mg
   0.6666670000000000    0.3333330000000000    0.1720460000000000 Mg
   0.3333330000000000    0.6666670000000000    0.8279540000000000 Mg
   0.3333330000000000    0.6666670000000000    0.5053800000000001 Mg
   0.9938300000000001    0.3600020000000000    0.5835530000000000 Se
   0.0061700000000000    0.6399980000000000    0.4164469999999990 Se
   0.6399980000000000    0.6338279999999999    0.5835530000000000 Se
   0.3600020000000000    0.3661720000000000    0.4164469999999990 Se
   0.3661720000000000    0.0061700000000000    0.5835530000000000 Se
   0.6338279999999999    0.9938300000000001    0.4164469999999990 Se
   0.6604970000000000    0.6933349999999990    0.9168860000000000 Se
   0.6728370000000000    0.9733309999999999    0.7497800000000001 Se
   0.3066649999999990    0.9671609999999990    0.9168860000000000 Se
   0.0266689999999990    0.6995049999999990    0.7497800000000001 Se
   0.0328390000000000    0.3395030000000000    0.9168860000000000 Se
   0.3004950000000000    0.3271630000000000    0.7497800000000001 Se
   0.3271630000000000    0.0266689999999990    0.2502200000000000 Se
   0.3395030000000000    0.3066649999999990    0.0831140000000000 Se
   0.9733309999999999    0.3004950000000000    0.2502200000000000 Se
   0.6933349999999990    0.0328390000000000    0.0831140000000000 Se
   0.6995049999999990    0.6728370000000000    0.2502200000000000 Se
   0.9671609999999990    0.6604970000000000    0.0831140000000000 Se
