La1 Co1 Ge3
1.0
   4.0238290299999999   -0.0000000000000000   -1.6229974299999990
  -0.6546303000000000    3.9702208500000000   -1.6229974199999999
  -0.0007551000000000   -0.0008890900000000    5.7976836199999999
La Co Ge
1 1 3
direct
   0.3387954900000000    0.3387954900000000    0.6775909800000001 La
   0.0039128600000000    0.0039128600000000    0.0078267100000000 Co
   0.5970214200000000    0.0970214200000000    0.1940408300000000 Ge
   0.7711488200000001    0.7711488200000001    0.5422996400000000 Ge
   0.0970214200000000    0.5970214200000000    0.1940408300000000 Ge
