Mg3 Zn1 C1
1.0
   4.4069310000000002    0.0000000000000000    0.0000000000000000
   0.0000000000000000    4.4069310000000002    0.0000000000000000
   0.0000000000000000    0.0000000000000000    4.4069310000000002
Mg Zn C
3 1 1
direct
   0.0000000000000000    0.5000000000000000    0.5000000000000000 Mg
   0.5000000000000000    0.5000000000000000    0.0000000000000000 Mg
   0.5000000000000000    0.0000000000000000    0.5000000000000000 Mg
   0.0000000000000000    0.0000000000000000    0.0000000000000000 Zn
   0.5000000000000000    0.5000000000000000    0.5000000000000000 C
