Li1 Ru1 Pb1 O3
1.0
   5.4208499999999997    0.0000000000000000    0.0000000000000000
   0.0000000000000000    3.8714710000000001    0.0000000000000000
   0.0000000000000000    0.0000000000000000    3.8749469999999988
Li Ru Pb O
1 1 1 3
direct
   0.5000000000000000    0.0000000000000000    0.0000000000000000 Li
   0.4999980000000000    0.4999980000000000    0.4999980000000000 Ru
   0.0000000000000000    0.0000000000000000    0.0000000000000000 Pb
   0.4999980000000000    0.4999980000000000    0.0000000000000000 O
   0.4999980000000000    0.0000000000000000    0.4999980000000000 O
   0.0000000000000000    0.4999980000000000    0.4999980000000000 O
