Bi4 Se4 Cl4 O12
1.0
   5.3243983100000003    0.0000000000000000    0.0000000000000000
   0.0000000000000000    6.9054089599999999    0.0000000000000000
   0.0000000000000000    0.0000000000000000   11.9209523199999996
Bi Se Cl O
4 4 4 12
direct
   0.3226940600000000    0.7043831900000000    0.5461125600000000 Bi
   0.8226940600000000    0.2956168100000000    0.4538874400000000 Bi
   0.3226940600000000    0.7956168100000001    0.0461125600000000 Bi
   0.8226940600000000    0.2043831900000000    0.9538874400000000 Bi
   0.8229713200000001    0.9879513900000000    0.2105729200000000 Se
   0.3229713200000000    0.4879513900000000    0.2894270800000000 Se
   0.3229713200000000    0.0120486100000000    0.7894270800000001 Se
   0.8229713200000001    0.5120486100000000    0.7105729200000001 Se
   0.3236093300000000    0.3909282100000000    0.9409207400000000 Cl
   0.3236093300000000    0.1090717900000000    0.4409207400000000 Cl
   0.8236093300000000    0.8909282100000000    0.5590792600000000 Cl
   0.8236093300000000    0.6090717900000000    0.0590792600000000 Cl
   0.8229861600000000    0.2895041100000000    0.7708424800000000 O
   0.0840283900000000    0.9708120100000001    0.8851149600000000 O
   0.8229861600000000    0.2104958900000000    0.2708424800000000 O
   0.0623117400000000    0.0292052200000000    0.1151178300000000 O
   0.0623117400000000    0.4707947800000000    0.6151178300000000 O
   0.5840283900000001    0.0291879900000000    0.1148850400000000 O
   0.5623117400000001    0.5292052200000000    0.3848821700000000 O
   0.5623117400000001    0.9707947800000000    0.8848821700000000 O
   0.3229861600000000    0.7104958900000000    0.2291575200000000 O
   0.5840283900000001    0.4708120100000000    0.6148850400000000 O
   0.0840283900000000    0.5291879900000001    0.3851149600000000 O
   0.3229861600000000    0.7895041100000000    0.7291575200000000 O
