Li2 V2 O6
1.0
   1.4449269999999990    6.4352010000000002    0.0000000000000000
  -1.4449269999999990    6.4352010000000002    0.0000000000000000
   0.0000000000000000    1.4712410000000000    5.8871089999999997
Li V O
2 2 6
direct
   0.0000000000000000    0.0000000000000000    0.5000000000000000 Li
   0.0000000000000000    0.0000000000000000    0.0000000000000000 Li
   0.6636609999999999    0.6636609999999999    0.1909120000000000 V
   0.3363390000000000    0.3363390000000000    0.8090879999999990 V
   0.1724100000000000    0.1724100000000000    0.3759200000000000 O
   0.8243140000000000    0.8243140000000000    0.0436070000000000 O
   0.8275900000000000    0.8275900000000000    0.6240800000000001 O
   0.4746169999999990    0.4746169999999990    0.7637609999999990 O
   0.5253829999999990    0.5253829999999990    0.2362389999999990 O
   0.1756859999999990    0.1756859999999990    0.9563929999999990 O
