Ti2 Al6 Ge2
1.0
   4.0053049999999999    0.0000000000000000    0.0000000000000000
   0.0000000000000000    4.0053049999999999    0.0000000000000000
   0.0000000000000000    0.0000000000000000   10.5910619999999991
Ti Al Ge
2 6 2
direct
   0.5000000000000000    0.0000000000000000    0.1947100000000000 Ti
   0.0000000000000000    0.5000000000000000    0.1947100000000000 Ti
   0.5000000000000000    0.5000000000000000    0.6093720000000000 Al
   0.0000000000000000    0.0000000000000000    0.3830639999999990 Al
   0.5000000000000000    0.5000000000000000    0.0033929999999990 Al
   0.0000000000000000    0.0000000000000000    0.0034200000000000 Al
   0.0000000000000000    0.5000000000000000    0.8081600000000001 Al
   0.5000000000000000    0.0000000000000000    0.8081600000000001 Al
   0.5000000000000000    0.5000000000000000    0.3694590000000000 Ge
   0.0000000000000000    0.0000000000000000    0.6255539999999991 Ge
