Al1 Pt3 C1
1.0
   4.1851500000000001    0.0000000000000000    0.0000000000000000
   0.0000000000000000    4.1851500000000001    0.0000000000000000
   0.0000000000000000    0.0000000000000000    4.1851500000000001
Al Pt C
1 3 1
direct
   0.0000000000000000    0.0000000000000000    0.0000000000000000 Al
   0.0000000000000000    0.5000000000000000    0.5000000000000000 Pt
   0.5000000000000000    0.0000000000000000    0.5000000000000000 Pt
   0.5000000000000000    0.5000000000000000    0.0000000000000000 Pt
   0.5000000000000000    0.5000000000000000    0.5000000000000000 C
