Ho4 Lu4 O12
1.0
   5.5760179999999995    0.0000000000000000    0.0000000000000000
   0.0000000000000000    5.8494310000000000    0.0000000000000000
   0.0000000000000000    0.0000000000000000    8.2587709999999994
Ho Lu O
4 4 12
direct
   0.0188419999999990    0.9432700000000001    0.7500000000000000 Ho
   0.4811580000000000    0.4432700000000001    0.7500000000000000 Ho
   0.5188420000000000    0.5567300000000001    0.2500000000000000 Ho
   0.9811580000000000    0.0567300000000000    0.2500000000000000 Ho
   0.0000000000000000    0.5000000000000000    0.0000000000000000 Lu
   0.0000000000000000    0.5000000000000000    0.5000000000000000 Lu
   0.5000000000000000    0.0000000000000000    0.0000000000000000 Lu
   0.5000000000000000    0.0000000000000000    0.5000000000000000 Lu
   0.1446019999999990    0.4301720000000000    0.2500000000000000 O
   0.1837879999999990    0.1869730000000000    0.5765490000000000 O
   0.1837879999999990    0.1869730000000000    0.9234509999999990 O
   0.3162120000000000    0.6869729999999999    0.9234509999999990 O
   0.3162120000000000    0.6869729999999999    0.5765490000000000 O
   0.3553980000000000    0.9301720000000000    0.2500000000000000 O
   0.6446020000000000    0.0698280000000000    0.7500000000000000 O
   0.6837880000000000    0.3130270000000000    0.0765489999999990 O
   0.6837880000000000    0.3130270000000000    0.4234509999999990 O
   0.8162119999999990    0.8130269999999991    0.0765489999999990 O
   0.8162119999999990    0.8130269999999991    0.4234509999999990 O
   0.8553980000000000    0.5698280000000000    0.7500000000000000 O
