Eu1 Mg1 Cr1 O3
1.0
   7.2561683300000004   -0.0000000000000000    0.0000000000000000
   0.0000000000000000    3.9148092600000002    0.0000000000000000
   0.0000000000000000    0.0000000000000000    3.9148092600000002
Eu Mg Cr O
1 1 1 3
direct
   0.5000000000000000    0.5000000000000000    0.5000000000000000 Eu
  -0.0000000000000000    0.5000000000000000    0.5000000000000000 Mg
  -0.0000000000000000    0.0000000000000000    0.0000000000000000 Cr
   0.5000000000000000   -0.0000000000000000    0.0000000000000000 O
  -0.0000000000000000    0.5000000000000000    0.0000000000000000 O
  -0.0000000000000000    0.0000000000000000    0.5000000000000000 O
