Co2 P2 S6
1.0
  -4.9964339999999998   -2.8852120000000001    0.0000000000000000
   4.9964339999999998   -2.8852120000000001    0.0000000000000000
   0.0000000000000000    1.9294689999999992    6.5826709999999995
Co P S
2 2 6
direct
   0.3332839999999990    0.6667160000000000    0.5000000000000000 Co
   0.6667160000000000    0.3332839999999990    0.5000000000000000 Co
   0.0556549999999990    0.0556549999999990    0.6643209999999991 P
   0.9443450000000000    0.9443450000000000    0.3356790000000000 P
   0.0727000000000000    0.4273869999999990    0.7173929999999999 S
   0.5726129999999990    0.9273000000000000    0.2826070000000000 S
   0.2811000000000000    0.2811000000000000    0.2818470000000000 S
   0.7189000000000000    0.7189000000000000    0.7181529999999990 S
   0.4273869999999990    0.0727000000000000    0.7173929999999999 S
   0.9273000000000000    0.5726129999999990    0.2826070000000000 S
