Nd1 Co1 O3
1.0
   3.8019449999999999    0.0000000000000000    0.0000000000000000
   0.0000000000000000    3.8019449999999999    0.0000000000000000
   0.0000000000000000    0.0000000000000000    3.8019449999999999
Nd Co O
1 1 3
direct
   0.0000000000000000    0.0000000000000000    0.0000000000000000 Nd
   0.5000000000000000    0.5000000000000000    0.5000000000000000 Co
   0.0000000000000000    0.5000000000000000    0.5000000000000000 O
   0.5000000000000000    0.0000000000000000    0.5000000000000000 O
   0.5000000000000000    0.5000000000000000    0.0000000000000000 O
