Nd3 Sn1 N1
1.0
   5.8345500000000001    0.0000000000000000    0.0000000000000000
   0.0000000000000000    5.8345500000000001    0.0000000000000000
   0.0000000000000000    0.0000000000000000    5.8345500000000001
Nd Sn N
3 1 1
direct
   0.5000000000000000    0.0000000000000000    0.5000000000000000 Nd
   0.5000000000000000    0.5000000000000000    0.0000000000000000 Nd
   0.0000000000000000    0.5000000000000000    0.5000000000000000 Nd
   0.5000000000000000    0.5000000000000000    0.5000000000000000 Sn
   0.0000000000000000    0.0000000000000000    0.0000000000000000 N
