Cs2 Sc2 I6
1.0
   0.0006676000000000   -0.0004918700000000   -6.7315416399999997
  -4.2512857899999998   -7.3647936200000004   -0.0001208600000000
  -4.2456911300000000    7.3615670800000004    0.0009629800000000
Cs Sc I
2 2 6
direct
   0.2501838700000000    0.6669242800000000    0.3334928500000000 Cs
   0.7501372700000000    0.3337194100000000    0.6668231600000000 Cs
  -0.0001988999999990   -0.0000370400000000   -0.0000243100000000 Sc
   0.5000765300000000    0.9999807100000000    0.9999732000000000 Sc
   0.7499843700000001    0.8328391500000000    0.1671692000000000 I
   0.2499037600000000    0.1668717200000000    0.8327132400000000 I
   0.7499833700000000    0.3342037600000000    0.1674891000000000 I
   0.2499549400000000    0.6658015200000000    0.8325203000000000 I
   0.7499708200000000    0.8327869800000001    0.6656314400000000 I
   0.2500029800000000    0.1669095100000000    0.3342118200000000 I
