Li4 Co4 B4 O12
1.0
  -0.1339270000000000   -0.0178340000000000    3.1135389999999998
   9.1445019999999992    0.0011279999999990    0.4798989999999990
   0.0027120000000000    9.3847520000000006   -0.0526300000000000
Li Co B O
4 4 4 12
direct
   0.2534500000000000    0.1345319999999990    0.6969440000000000 Li
   0.2458129999999990    0.3654030000000000    0.1969270000000000 Li
   0.7542900000000000    0.6345980000000000    0.8030740000000000 Li
   0.7465280000000000    0.8654670000000000    0.3030549999999990 Li
   0.7437849999999990    0.2020330000000000    0.9380640000000000 Co
   0.2561580000000000    0.7979670000000000    0.0619360000000000 Co
   0.7499270000000000    0.2979509999999990    0.4379079999999990 Co
   0.2499030000000000    0.7020500000000001    0.5620919999999990 Co
   0.2461870000000000    0.1031900000000000    0.2112530000000000 B
   0.2523390000000000    0.3968300000000000    0.7114020000000000 B
   0.7476790000000000    0.6031690000000000    0.2885959999999990 B
   0.7538349999999990    0.8968100000000001    0.7887480000000000 B
   0.7599720000000000    0.0463320000000000    0.7802690000000000 O
   0.7459540000000000    0.4536349999999990    0.2802590000000000 O
   0.2542160000000000    0.5463650000000000    0.7197400000000000 O
   0.2400189999999990    0.9536680000000000    0.2197319999999990 O
   0.2517360000000000    0.1882889999999990    0.3336820000000000 O
   0.2518789999999990    0.3118740000000000    0.8339420000000000 O
   0.7481070000000000    0.6881280000000000    0.1660569999999990 O
   0.7483630000000000    0.8117110000000000    0.6663180000000000 O
   0.2469430000000000    0.1783860000000000    0.0806620000000000 O
   0.2505920000000000    0.3214480000000000    0.5806780000000000 O
   0.7493109999999999    0.6785519999999990    0.4193200000000000 O
   0.7530150000000000    0.8216140000000000    0.9193389999999990 O
