La2 Mo2 N6
1.0
   4.9756200000000002   -2.8637839999999999    0.0000000000000000
   4.9756200000000002    2.8637839999999999    0.0000000000000000
   3.3273310000000000    0.0000000000000000    4.6783450000000002
La Mo N
2 2 6
direct
   0.7396900000000001    0.7396900000000001    0.7396900000000001 La
   0.2396900000000000    0.2396900000000000    0.2396900000000000 La
   0.4884100000000001    0.4884100000000001    0.4884100000000001 Mo
   0.9884100000000001    0.9884100000000001    0.9884100000000001 Mo
   0.8221200000000001    0.7054200000000000    0.2626600000000000 N
   0.2626600000000000    0.8221200000000001    0.7054200000000000 N
   0.7054200000000000    0.2626600000000000    0.8221200000000001 N
   0.2054200000000000    0.3221200000000000    0.7626600000000001 N
   0.7626600000000001    0.2054200000000000    0.3221200000000000 N
   0.3221200000000000    0.7626600000000001    0.2054200000000000 N
