Mg1 Fe1 Bi1 O3
1.0
   3.9815290600000002    0.0000000000000000    0.0000000000000000
   0.0000000000000000    3.9815314100000001    0.0000000000000000
   0.0000000000000000    0.0000000000000000    7.1449101099999996
Mg Fe Bi O
1 1 1 3
direct
   0.5000000000000000    0.5000000000000000    0.2014100300000000 Mg
   0.5000000000000000    0.5000000000000000    0.6552106600000001 Fe
   0.0000000000000000    0.0000000000000000    0.0344597100000000 Bi
   0.0000000000000000    0.5000000000000000    0.2024132200000000 O
   0.5000000000000000    0.0000000000000000    0.2024169900000000 O
   0.5000000000000000    0.5000000000000000    0.9085903800000000 O
