Gd2 Co2 Ni6 B2
1.0
   5.0012910000000002    0.0000000000000000    0.0000000000000000
  -2.5006459999999988    4.3312450000000000    0.0000000000000000
   0.0000000000000000    0.0000000000000000    6.9385529999999997
Gd Co Ni B
2 2 6 2
direct
   0.0000000000000000    0.0000000000000000    0.0000000000000000 Gd
   0.0000000000000000    0.0000000000000000    0.5000000000000000 Gd
   0.6666670000000000    0.3333330000000000    0.0000000000000000 Co
   0.3333330000000000    0.6666670000000000    0.0000000000000000 Co
   0.5000000000000000    0.5000000000000000    0.7071430000000000 Ni
   0.5000000000000000    0.0000000000000000    0.7071430000000000 Ni
   0.0000000000000000    0.5000000000000000    0.7071430000000000 Ni
   0.5000000000000000    0.5000000000000000    0.2928570000000000 Ni
   0.5000000000000000    0.0000000000000000    0.2928570000000000 Ni
   0.0000000000000000    0.5000000000000000    0.2928570000000000 Ni
   0.6666670000000000    0.3333330000000000    0.5000000000000000 B
   0.3333330000000000    0.6666670000000000    0.5000000000000000 B
