Sr2 Mo2 O6
1.0
   5.6292099200000001    0.0011721500000000    0.0218907200000000
   2.8258524800000000   -3.9741954600000002    2.8343456900000001
   2.8042627599999999   -3.9737478700000000   -2.8119076100000000
Sr Mo O
2 2 6
direct
   0.7498462400000000    0.7501006100000001    0.7496880600000000 Sr
   0.2501537600000000    0.2498993900000000    0.2503119400000000 Sr
   0.5000000000000000    0.5000000000000000    0.5000000000000000 Mo
  -0.0000000000000000    0.0000000000000000    0.0000000000000000 Mo
   0.7552035400000000    0.2269794500000000    0.2754315700000000 O
   0.2447964600000000    0.7730205500000000    0.7245684300000000 O
   0.2403464700000000    0.2584370000000000    0.7595980100000000 O
   0.2663800000000000    0.7338650000000000    0.2352068300000000 O
   0.7336200000000000    0.2661350000000000    0.7647931700000000 O
   0.7596535300000000    0.7415630000000000    0.2404019900000000 O
