Sr4 Mn4 O12
1.0
   2.7627579999999998   -4.7852379999999997    0.0000000000000000
   2.7627579999999998    4.7852379999999997    0.0000000000000000
   0.0000000000000000    0.0000000000000000    9.2924500000000005
Sr Mn O
4 4 12
direct
   0.3333330000000000    0.6666670000000000    0.2476070000000000 Sr
   0.6666670000000000    0.3333330000000000    0.7476070000000000 Sr
   0.0000000000000000    0.0000000000000000    0.4895100000000001 Sr
   0.0000000000000000    0.0000000000000000    0.9895100000000001 Sr
   0.3333330000000000    0.6666670000000000    0.8871200000000000 Mn
   0.6666670000000000    0.3333330000000000    0.1129780000000000 Mn
   0.6666670000000000    0.3333330000000000    0.3871200000000000 Mn
   0.3333330000000000    0.6666670000000000    0.6129780000000000 Mn
   0.4997189999999990    0.5002810000000000    0.4998410000000000 O
   0.4997189999999990    0.9994369999999991    0.4998410000000000 O
   0.0005630000000000    0.5002810000000000    0.4998410000000000 O
   0.5002810000000000    0.4997189999999990    0.9998410000000000 O
   0.5002810000000000    0.0005630000000000    0.9998410000000000 O
   0.9994369999999991    0.4997189999999990    0.9998410000000000 O
   0.1810210000000000    0.3620420000000000    0.7504250000000000 O
   0.6379580000000000    0.8189790000000000    0.7504250000000000 O
   0.1810210000000000    0.8189790000000000    0.7504250000000000 O
   0.8189790000000000    0.6379580000000000    0.2504250000000000 O
   0.3620420000000000    0.1810210000000000    0.2504250000000000 O
   0.8189790000000000    0.1810210000000000    0.2504250000000000 O
