Mg16 Si16 O48
1.0
   8.9000280000000007    0.0000000000000000    0.0000000000000000
   0.0000000000000000    5.3525210000000003    0.0000000000000000
   0.0000000000000000    0.3917100000000001   18.6372959999999992
Mg Si O
16 16 48
direct
   0.3999470000000000    0.2500000000000000    0.0000000000000000 Mg
   0.6000529999999999    0.7500000000000000    0.0000000000000000 Mg
   0.2426239999999990    0.7500000000000000    0.0000000000000000 Mg
   0.7573759999999990    0.2500000000000000    0.0000000000000000 Mg
   0.9008929999999991    0.2773990000000000    0.2495400000000000 Mg
   0.9008929999999991    0.2226010000000000    0.7504600000000000 Mg
   0.0991070000000000    0.7226009999999990    0.7504600000000000 Mg
   0.0991070000000000    0.7773990000000000    0.2495400000000000 Mg
   0.2580330000000000    0.2766980000000000    0.2521470000000000 Mg
   0.2580330000000000    0.2233020000000000    0.7478530000000000 Mg
   0.7419669999999990    0.7233020000000000    0.7478530000000000 Mg
   0.7419669999999990    0.7766980000000000    0.2521470000000000 Mg
   0.5966180000000000    0.7500000000000000    0.5000000000000000 Mg
   0.4033819999999990    0.2500000000000000    0.5000000000000000 Mg
   0.2389720000000000    0.7500000000000000    0.5000000000000000 Mg
   0.7610279999999990    0.2500000000000000    0.5000000000000000 Mg
   0.9110990000000000    0.5492290000000000    0.8958510000000000 Si
   0.9110990000000000    0.9507709999999990    0.1041489999999990 Si
   0.0889010000000000    0.4507710000000000    0.1041489999999990 Si
   0.0889010000000000    0.0492289999999990    0.8958510000000000 Si
   0.4106640000000000    0.5912330000000000    0.8522149999999999 Si
   0.4106640000000000    0.9087670000000000    0.1477850000000000 Si
   0.5893360000000000    0.4087670000000000    0.1477850000000000 Si
   0.5893360000000000    0.0912330000000000    0.8522149999999999 Si
   0.9094369999999991    0.5791390000000000    0.3971659999999990 Si
   0.9094369999999991    0.9208609999999990    0.6028340000000000 Si
   0.0905629999999990    0.4208610000000000    0.6028340000000000 Si
   0.0905629999999990    0.0791390000000000    0.3971659999999990 Si
   0.5898200000000000    0.0815350000000000    0.3528840000000000 Si
   0.5898200000000000    0.4184650000000000    0.6471160000000000 Si
   0.4101800000000000    0.9184650000000000    0.6471160000000000 Si
   0.4101800000000000    0.5815350000000000    0.3528840000000000 Si
   0.9081819999999990    0.5535880000000000    0.8082159999999990 O
   0.9081819999999990    0.9464119999999990    0.1917839999999990 O
   0.0918180000000000    0.4464120000000000    0.1917839999999990 O
   0.0918180000000000    0.0535880000000000    0.8082159999999990 O
   0.7567809999999990    0.5713910000000000    0.9397280000000000 O
   0.7567809999999990    0.9286089999999990    0.0602720000000000 O
   0.2432190000000000    0.4286089999999990    0.0602720000000000 O
   0.2432190000000000    0.0713910000000000    0.9397280000000000 O
   0.0345170000000000    0.7610680000000000    0.9229940000000000 O
   0.0345170000000000    0.7389319999999990    0.0770059999999990 O
   0.9654830000000000    0.2389319999999990    0.0770059999999990 O
   0.9654830000000000    0.2610679999999990    0.9229940000000000 O
   0.4075080000000000    0.5827909999999999    0.9401119999999999 O
   0.4075080000000000    0.9172089999999991    0.0598880000000000 O
   0.5924920000000000    0.4172090000000000    0.0598880000000000 O
   0.5924920000000000    0.0827909999999990    0.9401119999999999 O
   0.2574369999999990    0.5277940000000000    0.8097710000000000 O
   0.2574369999999990    0.9722059999999991    0.1902289999999990 O
   0.7425630000000000    0.4722059999999990    0.1902289999999990 O
   0.7425630000000000    0.0277940000000000    0.8097710000000000 O
   0.5307040000000000    0.3726770000000000    0.8249270000000000 O
   0.5307040000000000    0.1273230000000000    0.1750729999999990 O
   0.4692960000000000    0.6273230000000000    0.1750729999999990 O
   0.4692960000000000    0.8726769999999990    0.8249270000000000 O
   0.9078440000000000    0.5985119999999990    0.3098510000000000 O
   0.9078440000000000    0.9014880000000000    0.6901490000000000 O
   0.0921560000000000    0.4014879999999990    0.6901490000000000 O
   0.0921560000000000    0.0985120000000000    0.3098510000000000 O
   0.7516539999999990    0.5746939999999990    0.4392220000000000 O
   0.7516539999999990    0.9253060000000000    0.5607780000000000 O
   0.2483459999999990    0.4253059999999990    0.5607780000000000 O
   0.2483459999999990    0.0746940000000000    0.4392220000000000 O
   0.9774759999999991    0.3025080000000000    0.4259800000000000 O
   0.9774759999999991    0.1974920000000000    0.5740200000000001 O
   0.0225240000000000    0.6974920000000000    0.5740200000000001 O
   0.0225240000000000    0.8025080000000000    0.4259800000000000 O
   0.5910879999999999    0.0850650000000000    0.4404210000000000 O
   0.5910879999999999    0.4149350000000000    0.5595789999999990 O
   0.4089120000000000    0.9149349999999991    0.5595789999999990 O
   0.4089120000000000    0.5850649999999999    0.4404210000000000 O
   0.7489650000000000    0.0926110000000000    0.3123950000000000 O
   0.7489650000000000    0.4073890000000000    0.6876050000000000 O
   0.2510350000000000    0.9073890000000000    0.6876050000000000 O
   0.2510350000000000    0.5926110000000000    0.3123950000000000 O
   0.5282770000000000    0.8037170000000000    0.3234000000000000 O
   0.5282770000000000    0.6962830000000000    0.6766000000000000 O
   0.4717230000000000    0.1962829999999990    0.6766000000000000 O
   0.4717230000000000    0.3037169999999990    0.3234000000000000 O
