La2 Cr2 Ge6
1.0
   3.0874310600000001   -5.3475370800000004    0.0000007600000000
   3.0874323100000001    5.3475377999999996   -0.0000008000000000
  -0.0000004400000000   -0.0000011900000000    5.9681989699999995
La Cr Ge
2 2 6
direct
   0.3333330400000000    0.6666667300000000    0.7499996500000000 La
   0.6666664400000000    0.3333330800000000    0.2500005999999990 La
   0.0000011300000000    0.0000012000000000    0.4999996600000000 Cr
  -0.0000004900000000   -0.0000008600000000    0.0000003600000000 Cr
   0.1947405900000000    0.8052593700000000    0.2500016700000000 Ge
   0.1947378900000000    0.3894787300000000    0.2500020100000000 Ge
   0.6105212800000001    0.8052620300000000    0.2500027200000000 Ge
   0.8052594800000000    0.1947405600000000    0.7499983000000000 Ge
   0.8052619000000000    0.6105212100000000    0.7499975800000001 Ge
   0.3894787300000000    0.1947379600000000    0.7499974500000001 Ge
