Yb1 W1 O3
1.0
   3.9443914398361941    0.0000000000000000    0.0000000000000000
  -0.0000000000000000    3.9443914398361941    0.0000000000000000
   0.0000000000000000   -0.0000000000000000    3.9443914398361941
Yb W O
1 1 3
direct
   0.0000000000000000    0.0000000000000000    0.0000000000000000 Yb
   0.5000000000000000    0.5000000000000000    0.5000000000000000 W
   0.5000000000000000    0.5000000000000000    0.0000000000000000 O
   0.5000000000000000    0.0000000000000000    0.5000000000000000 O
   0.0000000000000000    0.5000000000000000    0.5000000000000000 O
