Ni4 Mo4 N12
1.0
  10.6878290000000007    1.4704200000000001   -0.1716619999999990
  -2.1900070000000000    5.2079389999999997   -0.9968410000000000
  -2.2629070000000002   -4.6575930000000003    7.1716439999999997
Ni Mo N
4 4 12
direct
   0.5262180000000000    0.5075240000000000    0.2694350000000000 Ni
   0.4737820000000000    0.4924759999999990    0.7305650000000000 Ni
   0.6934480000000000    0.6443690000000000    0.6447210000000000 Ni
   0.3065520000000000    0.3556310000000000    0.3552790000000000 Ni
   0.9126930000000000    0.7047019999999991    0.5871370000000000 Mo
   0.0873070000000000    0.2952980000000000    0.4128630000000000 Mo
   0.7570370000000000    0.8315680000000000    0.1258409999999990 Mo
   0.2429629999999990    0.1684320000000000    0.8741589999999990 Mo
   0.7206420000000000    0.6705970000000000    0.4580110000000000 N
   0.2793580000000000    0.3294030000000000    0.5419889999999991 N
   0.8544950000000000    0.2672230000000000    0.3238640000000000 N
   0.1455050000000000    0.7327770000000000    0.6761360000000000 N
   0.8774710000000000    0.6430239999999990    0.7471089999999990 N
   0.1225290000000000    0.3569759999999990    0.2528910000000000 N
   0.6795740000000000    0.7002919999999990    0.8520840000000000 N
   0.3204260000000000    0.2997080000000000    0.1479160000000000 N
   0.9267449999999990    0.8115420000000000    0.2078930000000000 N
   0.0732550000000000    0.1884580000000000    0.7921070000000000 N
   0.4443510000000000    0.4491929999999990    0.9134979999999990 N
   0.5556489999999999    0.5508069999999990    0.0865020000000000 N
