Rb2 Hg2 Sb2 Te6
1.0
   2.2949809999999999   -8.0691590000000009    0.0000000000000000
   2.2949809999999999    8.0691590000000009    0.0000000000000000
   0.0000000000000000    0.0000000000000000   12.0278799999999997
Rb Hg Sb Te
2 2 2 6
direct
   0.2496570000000000    0.7503430000000000    0.2465010000000000 Rb
   0.7503430000000000    0.2496570000000000    0.7465010000000000 Rb
   0.5500309999999990    0.4499689999999990    0.2551279999999990 Hg
   0.4499689999999990    0.5500309999999990    0.7551279999999990 Hg
   0.9894100000000001    0.0105900000000000    0.0115369999999990 Sb
   0.0105900000000000    0.9894100000000001    0.5115370000000000 Sb
   0.6361289999999999    0.3638710000000000    0.4594689999999990 Te
   0.3769050000000000    0.6230950000000000    0.5404550000000000 Te
   0.6230950000000000    0.3769050000000000    0.0404550000000000 Te
   0.3638710000000000    0.6361289999999999    0.9594689999999991 Te
   0.9344100000000001    0.0655900000000000    0.2421110000000000 Te
   0.0655900000000000    0.9344100000000001    0.7421110000000000 Te
