Co1 N1 F3
1.0
   3.7678430000000001    0.0000000000000000    0.0000000000000000
   0.0000000000000000    3.7678430000000001    0.0000000000000000
   0.0000000000000000    0.0000000000000000    3.7678430000000001
Co N F
1 1 3
direct
   0.0000000000000000    0.0000000000000000    0.0000000000000000 Co
   0.5000000000000000    0.5000000000000000    0.5000000000000000 N
   0.5000000000000000    0.0000000000000000    0.0000000000000000 F
   0.0000000000000000    0.5000000000000000    0.0000000000000000 F
   0.0000000000000000    0.0000000000000000    0.5000000000000000 F
