Hg12 N12 O36
1.0
   9.8309649999999991    0.0000000000000000    0.0000000000000000
   0.0000000000000000    9.8309649999999991    0.0000000000000000
   0.0000000000000000    0.0000000000000000    9.8309649999999991
Hg N O
12 12 36
direct
   0.9061810000000000    0.8438190000000000    0.3750000000000000 Hg
   0.5938190000000000    0.1561810000000000    0.8750000000000000 Hg
   0.0938190000000000    0.3438190000000000    0.1250000000000000 Hg
   0.4061809999999990    0.6561810000000000    0.6250000000000000 Hg
   0.8438190000000000    0.3750000000000000    0.9061810000000000 Hg
   0.1561810000000000    0.8750000000000000    0.5938190000000000 Hg
   0.3438190000000000    0.1250000000000000    0.0938190000000000 Hg
   0.6561810000000000    0.6250000000000000    0.4061809999999990 Hg
   0.3750000000000000    0.9061810000000000    0.8438190000000000 Hg
   0.8750000000000000    0.5938190000000000    0.1561810000000000 Hg
   0.1250000000000000    0.0938190000000000    0.3438190000000000 Hg
   0.6250000000000000    0.4061809999999990    0.6561810000000000 Hg
   0.1641480000000000    0.5858519999999990    0.3750000000000000 N
   0.3358520000000000    0.4141479999999990    0.8750000000000000 N
   0.8358519999999990    0.0858520000000000    0.1250000000000000 N
   0.6641480000000000    0.9141480000000000    0.6250000000000000 N
   0.5858519999999990    0.3750000000000000    0.1641480000000000 N
   0.4141479999999990    0.8750000000000000    0.3358520000000000 N
   0.0858520000000000    0.1250000000000000    0.8358519999999990 N
   0.9141480000000000    0.6250000000000000    0.6641480000000000 N
   0.3750000000000000    0.1641480000000000    0.5858519999999990 N
   0.8750000000000000    0.3358520000000000    0.4141479999999990 N
   0.1250000000000000    0.8358519999999990    0.0858520000000000 N
   0.6250000000000000    0.6641480000000000    0.9141480000000000 N
   0.2531210000000000    0.4968789999999990    0.3750000000000000 O
   0.2468790000000000    0.5031209999999990    0.8750000000000000 O
   0.7468790000000000    0.9968790000000000    0.1250000000000000 O
   0.7531209999999990    0.0031209999999990    0.6250000000000000 O
   0.4968789999999990    0.3750000000000000    0.2531210000000000 O
   0.5031209999999990    0.8750000000000000    0.2468790000000000 O
   0.9968790000000000    0.1250000000000000    0.7468790000000000 O
   0.0031209999999990    0.6250000000000000    0.7531209999999990 O
   0.3750000000000000    0.2531210000000000    0.4968789999999990 O
   0.8750000000000000    0.2468790000000000    0.5031209999999990 O
   0.1250000000000000    0.7468790000000000    0.9968790000000000 O
   0.6250000000000000    0.7531209999999990    0.0031209999999990 O
   0.1133690000000000    0.6281770000000000    0.2627120000000000 O
   0.3866310000000000    0.3718229999999990    0.7627119999999999 O
   0.8866309999999999    0.1281769999999990    0.2372880000000000 O
   0.6133689999999991    0.8718230000000000    0.7372879999999991 O
   0.6281770000000000    0.2627120000000000    0.1133690000000000 O
   0.3718229999999990    0.7627119999999999    0.3866310000000000 O
   0.1281769999999990    0.2372880000000000    0.8866309999999999 O
   0.8718230000000000    0.7372879999999991    0.6133689999999991 O
   0.2627120000000000    0.1133690000000000    0.6281770000000000 O
   0.7627119999999999    0.3866310000000000    0.3718229999999990 O
   0.2372880000000000    0.8866309999999999    0.1281769999999990 O
   0.7372879999999991    0.6133689999999991    0.8718230000000000 O
   0.6366309999999999    0.4872880000000000    0.1218230000000000 O
   0.3633690000000000    0.9872879999999991    0.3781770000000000 O
   0.8633689999999991    0.5127119999999999    0.6218230000000000 O
   0.1366310000000000    0.0127120000000000    0.8781770000000000 O
   0.1218230000000000    0.6366309999999999    0.4872880000000000 O
   0.3781770000000000    0.3633690000000000    0.9872879999999991 O
   0.6218230000000000    0.8633689999999991    0.5127119999999999 O
   0.8781770000000000    0.1366310000000000    0.0127120000000000 O
   0.4872880000000000    0.1218230000000000    0.6366309999999999 O
   0.9872879999999991    0.3781770000000000    0.3633690000000000 O
   0.5127119999999999    0.6218230000000000    0.8633689999999991 O
   0.0127120000000000    0.8781770000000000    0.1366310000000000 O
