Gd4 Lu4 O12
1.0
   5.6727780000000001    0.0000000000000000    0.0000000000000000
   0.0000000000000000    5.9310469999999995    0.0000000000000000
   0.0000000000000000    0.0000000000000000    8.2642889999999998
Gd Lu O
4 4 12
direct
   0.9863130000000000    0.0543040000000000    0.2500000000000000 Gd
   0.4863130000000000    0.4456960000000000    0.7500000000000000 Gd
   0.5136870000000000    0.5543040000000000    0.2500000000000000 Gd
   0.0136870000000000    0.9456960000000000    0.7500000000000000 Gd
   0.5000000000000000    0.0000000000000000    0.0000000000000000 Lu
   0.5000000000000000    0.0000000000000000    0.5000000000000000 Lu
   0.0000000000000000    0.5000000000000000    0.0000000000000000 Lu
   0.0000000000000000    0.5000000000000000    0.5000000000000000 Lu
   0.6333350000000000    0.0652140000000000    0.7500000000000000 O
   0.1822040000000000    0.1860629999999990    0.5691240000000000 O
   0.1822040000000000    0.1860629999999990    0.9308759999999990 O
   0.6822039999999990    0.3139369999999990    0.0691239999999990 O
   0.6822039999999990    0.3139369999999990    0.4308760000000000 O
   0.1333349999999990    0.4347860000000000    0.2500000000000000 O
   0.8666649999999990    0.5652140000000000    0.7500000000000000 O
   0.3177959999999990    0.6860630000000000    0.9308759999999990 O
   0.3177959999999990    0.6860630000000000    0.5691240000000000 O
   0.8177960000000000    0.8139369999999990    0.0691239999999990 O
   0.8177960000000000    0.8139369999999990    0.4308760000000000 O
   0.3666649999999990    0.9347860000000000    0.2500000000000000 O
