Li1 Ni1 O3
1.0
   3.7751449999999993    0.0000000000000000    0.0000000000000000
   0.0000000000000000    3.7751449999999993    0.0000000000000000
   0.0000000000000000    0.0000000000000000    3.7751449999999993
Li Ni O
1 1 3
direct
   0.0000000000000000    0.0000000000000000    0.0000000000000000 Li
   0.5000000000000000    0.5000000000000000    0.5000000000000000 Ni
   0.5000000000000000    0.5000000000000000    0.0000000000000000 O
   0.5000000000000000    0.0000000000000000    0.5000000000000000 O
   0.0000000000000000    0.5000000000000000    0.5000000000000000 O
