Dy3 Al1 N1
1.0
   4.7509304300000004   -0.0000000000000000    0.0000000000000000
   0.0000000000000000    4.7509304300000004   -0.0000000000000000
   0.0000000000000000    0.0000000000000000    4.7509304300000004
Dy Al N
3 1 1
direct
   0.5000000000000000    0.5000000000000000   -0.0000000000000000 Dy
   0.5000000000000000   -0.0000000000000000    0.5000000000000000 Dy
  -0.0000000000000000    0.5000000000000000    0.5000000000000000 Dy
  -0.0000000000000000   -0.0000000000000000   -0.0000000000000000 Al
   0.5000000000000000    0.5000000000000000    0.5000000000000000 N
