Ce6 Mg6 Se18
1.0
   7.1303679999999998   -0.0000010000000000    0.0000000000000000
  -3.5651829999999989    6.1750800000000003    0.0000000000000000
   0.0000000000000000    0.0000000000000000   18.9274559999999994
Ce Mg Se
6 6 18
direct
   0.0000000000000000    0.0000000000000000    0.3442409999999990 Ce
   0.0000000000000000    0.0000000000000000    0.6557590000000000 Ce
   0.6666670000000000    0.3333330000000000    0.6775740000000000 Ce
   0.6666670000000000    0.3333330000000000    0.9890920000000000 Ce
   0.3333330000000000    0.6666670000000000    0.0109080000000000 Ce
   0.3333330000000000    0.6666670000000000    0.3224260000000000 Ce
   0.0000000000000000    0.0000000000000000    0.1534060000000000 Mg
   0.0000000000000000    0.0000000000000000    0.8465940000000000 Mg
   0.6666670000000000    0.3333330000000000    0.4867390000000000 Mg
   0.6666670000000000    0.3333330000000000    0.1799270000000000 Mg
   0.3333330000000000    0.6666670000000000    0.8200729999999991 Mg
   0.3333330000000000    0.6666670000000000    0.5132610000000000 Mg
   0.9788190000000000    0.3371730000000000    0.5802490000000000 Se
   0.0211810000000000    0.6628269999999991    0.4197510000000000 Se
   0.6628269999999991    0.6416459999999991    0.5802490000000000 Se
   0.3371730000000000    0.3583540000000000    0.4197510000000000 Se
   0.3583540000000000    0.0211810000000000    0.5802490000000000 Se
   0.6416459999999991    0.9788190000000000    0.4197510000000000 Se
   0.6454860000000000    0.6705059999999990    0.9135820000000000 Se
   0.6878480000000000    0.9961600000000000    0.7530840000000000 Se
   0.3294940000000000    0.9749789999999990    0.9135820000000000 Se
   0.0038400000000000    0.6916869999999991    0.7530840000000000 Se
   0.0250209999999990    0.3545140000000000    0.9135820000000000 Se
   0.3083130000000000    0.3121520000000000    0.7530840000000000 Se
   0.3121520000000000    0.0038400000000000    0.2469160000000000 Se
   0.3545140000000000    0.3294940000000000    0.0864180000000000 Se
   0.9961600000000000    0.3083130000000000    0.2469160000000000 Se
   0.6705059999999990    0.0250209999999990    0.0864180000000000 Se
   0.6916869999999991    0.6878480000000000    0.2469160000000000 Se
   0.9749789999999990    0.6454860000000000    0.0864180000000000 Se
