La4 Ho4 O12
1.0
   5.8835189999999997    0.0000000000000000    0.0000000000000000
   0.0000000000000000    6.0755239999999997    0.0000000000000000
   0.0000000000000000    0.0000000000000000    8.5759690000000006
La Ho O
4 4 12
direct
   0.9816739999999990    0.0466909999999990    0.2500000000000000 La
   0.4816740000000000    0.4533089999999990    0.7500000000000000 La
   0.5183260000000000    0.5466909999999990    0.2500000000000000 La
   0.0183260000000000    0.9533090000000000    0.7500000000000000 La
   0.5000000000000000    0.0000000000000000    0.0000000000000000 Ho
   0.5000000000000000    0.0000000000000000    0.5000000000000000 Ho
   0.0000000000000000    0.5000000000000000    0.0000000000000000 Ho
   0.0000000000000000    0.5000000000000000    0.5000000000000000 Ho
   0.6313970000000000    0.0565530000000000    0.7500000000000000 O
   0.1967010000000000    0.1978950000000000    0.5715300000000001 O
   0.1967010000000000    0.1978950000000000    0.9284700000000001 O
   0.6967010000000000    0.3021050000000000    0.4284700000000000 O
   0.6967010000000000    0.3021050000000000    0.0715300000000000 O
   0.1313969999999990    0.4434470000000000    0.2500000000000000 O
   0.8686030000000000    0.5565530000000000    0.7500000000000000 O
   0.3032990000000000    0.6978949999999990    0.9284700000000001 O
   0.3032990000000000    0.6978949999999990    0.5715300000000001 O
   0.8032990000000000    0.8021050000000000    0.0715300000000000 O
   0.8032990000000000    0.8021050000000000    0.4284700000000000 O
   0.3686029999999990    0.9434469999999990    0.2500000000000000 O
