Cs4 Eu4 Cl12
1.0
   7.8478651800000003    0.0000000000000000    0.0000000000000000
   0.0000000000000000    7.9641639399999997    0.0000000000000000
   0.0000000000000000    0.0000000000000000   11.2113696399999991
Cs Eu Cl
4 4 12
direct
   0.0102069000000000    0.4559127900000000    0.2500000000000000 Cs
   0.9897931000000000    0.5440872100000000    0.7500000000000000 Cs
   0.5102069000000000    0.0440872100000000    0.7500000000000000 Cs
   0.4897931000000000    0.9559127900000001    0.2500000000000000 Cs
  -0.0000000000000000    0.0000000000000000    0.0000000000000000 Eu
   0.5000000000000000    0.5000000000000000    0.0000000000000000 Eu
  -0.0000000000000000    0.0000000000000000    0.5000000000000000 Eu
   0.5000000000000000    0.5000000000000000    0.5000000000000000 Eu
   0.2889365800000000    0.2121120500000000    0.0330554100000000 Cl
   0.7110634200000000    0.7878879500000000    0.9669445900000000 Cl
   0.7889365800000000    0.2878879500000000    0.9669445900000000 Cl
   0.7110634200000000    0.7878879500000000    0.5330554100000000 Cl
   0.2110634200000000    0.7121120500000000    0.0330554100000000 Cl
   0.2889365800000000    0.2121120500000000    0.4669445900000000 Cl
   0.2110634200000000    0.7121120500000000    0.4669445900000000 Cl
   0.7889365800000000    0.2878879500000000    0.5330554100000000 Cl
   0.5627200000000000    0.5103318000000000    0.2500000000000000 Cl
   0.4372800000000001    0.4896682000000000    0.7500000000000000 Cl
   0.0627200000000000    0.9896682000000000    0.7500000000000000 Cl
   0.9372800000000001    0.0103318000000000    0.2500000000000000 Cl
