Fe6 Bi6 O18
1.0
  -0.0565230000000000    0.0000000000000000   -5.6112469999999997
   0.0000000000000000   -7.9447849999999995    0.0000000000000000
  -8.4789739999999991    3.9723929999999998    2.9405679999999998
Fe Bi O
6 6 18
direct
   0.0000000000000000    0.0000000000000000    0.5000000000000000 Fe
   0.0000000000000000    0.5000000000000000    0.5000000000000000 Fe
   0.6748820000000000    0.1701580000000000    0.8333419999999990 Fe
   0.6748820000000000    0.6631840000000000    0.8333419999999990 Fe
   0.3251179999999990    0.8298420000000000    0.1666580000000000 Fe
   0.3251179999999990    0.3368160000000000    0.1666580000000000 Fe
   0.4681900000000001    0.2489300000000000    0.4978610000000000 Bi
   0.5318100000000000    0.7510700000000000    0.5021390000000000 Bi
   0.2153260000000000    0.4174040000000000    0.8348070000000000 Bi
   0.7846740000000000    0.5825960000000000    0.1651929999999990 Bi
   0.2049750000000000    0.9150509999999999    0.8301020000000000 Bi
   0.7950250000000000    0.0849490000000000    0.1698980000000000 Bi
   0.5800419999999999    0.3843249999999990    0.7686500000000001 O
   0.4199580000000000    0.6156750000000000    0.2313500000000000 O
   0.0000000000000000    0.2874240000000000    0.0000000000000000 O
   0.0000000000000000    0.7125760000000000    0.0000000000000000 O
   0.7644120000000000    0.0493460000000000    0.6359690000000000 O
   0.7644120000000000    0.5866230000000000    0.6359690000000000 O
   0.2355880000000000    0.9506540000000000    0.3640310000000000 O
   0.2355880000000000    0.4133770000000000    0.3640310000000000 O
   0.7070200000000001    0.9418949999999990    0.3033280000000000 O
   0.7070200000000001    0.3614330000000000    0.3033280000000000 O
   0.2929800000000000    0.0581050000000000    0.6966720000000000 O
   0.2929800000000000    0.6385670000000000    0.6966720000000000 O
   0.5000000000000000    0.3204680000000000    0.0000000000000000 O
   0.5000000000000000    0.6795319999999990    0.0000000000000000 O
   0.6318469999999990    0.9431630000000000    0.8863259999999999 O
   0.3681530000000000    0.0568370000000000    0.1136740000000000 O
   0.0820480000000000    0.2689880000000000    0.5379760000000000 O
   0.9179520000000000    0.7310120000000000    0.4620240000000000 O
