K1 Au1 O3
1.0
   4.1577799999999998    0.0000000000000000    0.0000000000000000
   0.0000000000000000    4.1577799999999998    0.0000000000000000
   0.0000000000000000    0.0000000000000000    4.1577799999999998
K Au O
1 1 3
direct
   0.0000000000000000    0.0000000000000000    0.0000000000000000 K
   0.5000000000000000    0.5000000000000000    0.5000000000000000 Au
   0.5000000000000000    0.5000000000000000    0.0000000000000000 O
   0.5000000000000000    0.0000000000000000    0.5000000000000000 O
   0.0000000000000000    0.5000000000000000    0.5000000000000000 O
