K4 Zn4 Cl12 O4
1.0
   6.5436980000000000    0.0000000000000000    0.0000000000000000
   0.0000000000000000    8.1025150000000004    0.0000000000000000
   0.0000000000000000    0.0000000000000000   11.8217859999999995
K Zn Cl O
4 4 12 4
direct
   0.1901950000000000    0.9789869999999991    0.5136130000000000 K
   0.6901950000000000    0.5210129999999999    0.4863869999999990 K
   0.8098050000000000    0.4789870000000000    0.9863869999999991 K
   0.3098050000000000    0.0210130000000000    0.0136130000000000 K
   0.7561970000000000    0.9277080000000000    0.2731070000000000 Zn
   0.2561970000000000    0.5722920000000000    0.7268930000000000 Zn
   0.2438030000000000    0.4277080000000000    0.2268929999999990 Zn
   0.7438030000000000    0.0722920000000000    0.7731070000000000 Zn
   0.6926810000000000    0.9045789999999990    0.4594910000000000 Cl
   0.1926810000000000    0.5954210000000000    0.5405090000000000 Cl
   0.3073190000000000    0.4045789999999990    0.0405089999999990 Cl
   0.8073190000000000    0.0954209999999990    0.9594910000000000 Cl
   0.5840240000000000    0.7438629999999991    0.1572579999999990 Cl
   0.0840240000000000    0.7561369999999999    0.8427420000000000 Cl
   0.4159759999999990    0.2438630000000000    0.3427420000000000 Cl
   0.9159760000000000    0.2561370000000000    0.6572580000000000 Cl
   0.1013289999999990    0.8734989999999990    0.2463670000000000 Cl
   0.6013290000000000    0.6265010000000000    0.7536330000000000 Cl
   0.8986710000000000    0.3734989999999990    0.2536330000000000 Cl
   0.3986710000000000    0.1265010000000000    0.7463670000000000 Cl
   0.6648339999999990    0.1393830000000000    0.2065970000000000 O
   0.1648339999999990    0.3606169999999990    0.7934030000000000 O
   0.3351659999999990    0.6393829999999990    0.2934029999999990 O
   0.8351660000000000    0.8606170000000000    0.7065969999999990 O
