Cs1 Tl1 Br3
1.0
   4.0910627499999999    4.1051668899999996    0.0029659800000000
  -4.0910627499999999    4.1051668899999996    0.0029659800000000
  -0.0000000000000000    0.0048226500000000    5.8046365299999998
Cs Tl Br
1 1 3
direct
   0.0017407200000000    0.0017407200000000    0.9923012900000000 Cs
   0.5013055600000000    0.5013055600000000    0.4852800700000000 Tl
   0.5041256300000000    0.0018196800000000    0.4865485000000000 Br
   0.4980954100000000    0.4980954100000000    0.9864076300000000 Br
   0.0018196800000000    0.5041256300000000    0.4865485000000000 Br
