Ag1 Cl1 O3
1.0
   3.3407789999999999   -2.7466600000000003    0.0000000000000000
   3.3407789999999999    2.7466600000000003    0.0000000000000000
   1.0825800000000001    0.0000000000000000    4.1872379999999998
Ag Cl O
1 1 3
direct
   0.0233370000000000    0.0233370000000000    0.0233370000000000 Ag
   0.5054839999999990    0.5054839999999990    0.5054839999999990 Cl
   0.8649920000000000    0.4230930000000000    0.4230930000000000 O
   0.4230930000000000    0.8649920000000000    0.4230930000000000 O
   0.4230930000000000    0.4230930000000000    0.8649920000000000 O
