Pd3 Pb1 C1
1.0
   4.2989449999999998    0.0000000000000000    0.0000000000000000
   0.0000000000000000    4.2989449999999998    0.0000000000000000
   0.0000000000000000    0.0000000000000000    4.2989449999999998
Pd Pb C
3 1 1
direct
   0.0000000000000000    0.5000000000000000    0.5000000000000000 Pd
   0.5000000000000000    0.5000000000000000    0.0000000000000000 Pd
   0.5000000000000000    0.0000000000000000    0.5000000000000000 Pd
   0.0000000000000000    0.0000000000000000    0.0000000000000000 Pb
   0.5000000000000000    0.5000000000000000    0.5000000000000000 C
