Cs8 Mn8 In8 Te24
1.0
   6.2765240300000000    6.2760726199999999   -0.0008100600000000
  -6.2765240300000000    6.2760726199999999   -0.0008100600000000
   0.0000000000000000    3.1409213000000000   24.3199576499999992
Cs Mn In Te
8 8 8 24
direct
   0.7698811600000001    0.3947264000000000    0.4200877100000000 Cs
   0.6052736000000000    0.2301188400000000    0.0799122900000000 Cs
   0.2301188400000000    0.6052736000000000    0.5799122900000000 Cs
   0.3947264000000000    0.7698811600000001    0.9200877100000000 Cs
   0.1046661900000000    0.2299005700000000    0.0799192000000000 Cs
   0.7700994300000000    0.8953338100000000    0.4200808000000000 Cs
   0.8953338100000000    0.7700994300000000    0.9200807999999990 Cs
   0.2299005700000000    0.1046661900000000    0.5799192000000000 Cs
   0.0631228900000000    0.9368771100000001    0.2500000000000000 Mn
   0.9368771100000001    0.0631228900000000    0.7500000000000000 Mn
   0.0637986100000000    0.4390720900000000    0.2499112900000000 Mn
   0.5609279100000000    0.9362013900000000    0.2500887100000000 Mn
   0.9362013900000000    0.5609279100000000    0.7500887100000000 Mn
   0.4390720900000000    0.0637986100000000    0.7499112900000000 Mn
   0.5612193000000000    0.4387806999999990    0.2500000000000000 Mn
   0.4387806999999990    0.5612193000000000    0.7500000000000000 Mn
   0.8440347200000000    0.7191366400000000    0.1236147900000000 In
   0.2808633600000000    0.1559652800000000    0.3763852100000000 In
   0.1559652800000000    0.2808633600000000    0.8763852100000000 In
   0.7191366400000000    0.8440347200000000    0.6236147900000000 In
   0.2807931600000000    0.6560222000000000    0.3759248900000000 In
   0.3439778000000000    0.7192068400000000    0.1240751100000000 In
   0.7192068400000000    0.3439778000000000    0.6240751100000000 In
   0.6560222000000000    0.2807931600000000    0.8759248900000001 In
   0.2631445100000000    0.3886617300000000    0.4473955600000000 Te
   0.6113382700000000    0.7368554900000001    0.0526044400000000 Te
   0.7368554900000001    0.6113382700000000    0.5526044400000000 Te
   0.3886617300000000    0.2631445100000000    0.9473955600000000 Te
   0.1120240800000000    0.7369815800000000    0.0526587100000000 Te
   0.2630184200000000    0.8879759200000000    0.4473412900000000 Te
   0.8879759200000000    0.2630184200000000    0.9473412900000000 Te
   0.7369815800000000    0.1120240800000000    0.5526587100000000 Te
   0.3290231800000000    0.4354548000000000    0.1843079900000000 Te
   0.5645452000000000    0.6709768200000000    0.3156920100000000 Te
   0.6709768200000000    0.5645452000000000    0.8156920100000000 Te
   0.4354548000000000    0.3290231800000000    0.6843079900000000 Te
   0.0286545200000000    0.1715408500000000    0.3154505200000000 Te
   0.8284591500000000    0.9713454800000000    0.1845494800000000 Te
   0.9713454800000000    0.8284591500000000    0.6845494800000000 Te
   0.1715408500000000    0.0286545200000000    0.8154505200000001 Te
   0.0277547900000000    0.6714037800000000    0.3154962400000000 Te
   0.3285962200000000    0.9722452100000000    0.1845037600000000 Te
   0.9722452100000000    0.3285962200000000    0.6845037600000000 Te
   0.6714037800000000    0.0277547900000000    0.8154962400000000 Te
   0.8287542000000000    0.4362756800000000    0.1846445400000000 Te
   0.5637243200000001    0.1712458000000000    0.3153554600000000 Te
   0.1712458000000000    0.5637243200000001    0.8153554600000000 Te
   0.4362756800000000    0.8287542000000000    0.6846445400000000 Te
