In1 Pt3 C1
1.0
   4.2585860000000002    0.0000000000000000    0.0000000000000000
   0.0000000000000000    4.2585860000000002    0.0000000000000000
   0.0000000000000000    0.0000000000000000    4.2585860000000002
In Pt C
1 3 1
direct
   0.0000000000000000    0.0000000000000000    0.0000000000000000 In
   0.5000000000000000    0.0000000000000000    0.5000000000000000 Pt
   0.5000000000000000    0.5000000000000000    0.0000000000000000 Pt
   0.0000000000000000    0.5000000000000000    0.5000000000000000 Pt
   0.5000000000000000    0.5000000000000000    0.5000000000000000 C
