K4 N4 O12
1.0
   5.6022350000000003    0.0000000000000000    0.0000000000000000
   0.0000000000000000    6.4050849999999997    0.0000000000000000
   0.0000000000000000    0.0000000000000000    9.2681959999999997
K N O
4 4 12
direct
   0.2500000000000000    0.1359660000000000    0.3899539999999990 K
   0.7500000000000000    0.3640339999999990    0.8899539999999990 K
   0.2500000000000000    0.6359659999999990    0.1100459999999990 K
   0.7500000000000000    0.8640340000000000    0.6100460000000000 K
   0.7500000000000000    0.8853709999999990    0.1341470000000000 N
   0.2500000000000000    0.6146290000000000    0.6341470000000000 N
   0.2500000000000000    0.1146290000000000    0.8658530000000000 N
   0.7500000000000000    0.3853709999999990    0.3658530000000000 N
   0.2500000000000000    0.7740960000000000    0.5516960000000000 O
   0.5537139999999990    0.4639850000000000    0.3257620000000000 O
   0.4462859999999990    0.5360150000000000    0.6742380000000000 O
   0.9462860000000000    0.4639850000000000    0.3257620000000000 O
   0.4462859999999990    0.0360150000000000    0.8257620000000000 O
   0.0537140000000000    0.0360150000000000    0.8257620000000000 O
   0.0537140000000000    0.5360150000000000    0.6742380000000000 O
   0.5537139999999990    0.9639850000000000    0.1742380000000000 O
   0.2500000000000000    0.2740960000000000    0.9483039999999990 O
   0.7500000000000000    0.2259040000000000    0.4483040000000000 O
   0.7500000000000000    0.7259040000000000    0.0516960000000000 O
   0.9462860000000000    0.9639850000000000    0.1742380000000000 O
