Mg4 Si4 O12
1.0
   4.1154510000000002    4.8711739999999999    0.0000000000000000
  -4.1154510000000002    4.8711739999999999    0.0000000000000000
   0.0000000000000000    0.6646719999999990    4.8495889999999999
Mg Si O
4 4 12
direct
   0.1123040000000000    0.8876959999999990    0.2500000000000000 Mg
   0.6928240000000000    0.3071760000000000    0.2500000000000000 Mg
   0.8876959999999990    0.1123040000000000    0.7500000000000000 Mg
   0.3071760000000000    0.6928240000000000    0.7500000000000000 Mg
   0.3267350000000000    0.1672469999999990    0.5277310000000000 Si
   0.6732650000000000    0.8327530000000000    0.4722690000000000 Si
   0.8327530000000000    0.6732650000000000    0.9722689999999991 Si
   0.1672469999999990    0.3267350000000000    0.0277310000000000 Si
   0.9358379999999999    0.8007960000000000    0.6307840000000000 O
   0.7119400000000000    0.6037129999999991    0.3031740000000000 O
   0.8951230000000000    0.3850389999999990    0.9253540000000000 O
   0.8007960000000000    0.9358379999999999    0.1307839999999990 O
   0.1992040000000000    0.0641620000000000    0.8692160000000000 O
   0.6037129999999991    0.7119400000000000    0.8031739999999991 O
   0.1048770000000000    0.6149610000000000    0.0746459999999990 O
   0.3850389999999990    0.8951230000000000    0.4253539999999990 O
   0.6149610000000000    0.1048770000000000    0.5746460000000000 O
   0.3962870000000000    0.2880600000000000    0.1968260000000000 O
   0.2880600000000000    0.3962870000000000    0.6968259999999999 O
   0.0641620000000000    0.1992040000000000    0.3692160000000000 O
