Rb1 Y1 O3
1.0
   4.5430950000000001    0.0000000000000000    0.0000000000000000
   0.0000000000000000    4.5430950000000001    0.0000000000000000
   0.0000000000000000    0.0000000000000000    4.5430950000000001
Rb Y O
1 1 3
direct
   0.0000000000000000    0.0000000000000000    0.0000000000000000 Rb
   0.5000000000000000    0.5000000000000000    0.5000000000000000 Y
   0.5000000000000000    0.5000000000000000    0.0000000000000000 O
   0.5000000000000000    0.0000000000000000    0.5000000000000000 O
   0.0000000000000000    0.5000000000000000    0.5000000000000000 O
