Ca2 Sn2 S6
1.0
  10.0402710000000006   17.2480539999999998    0.0000000000000000
 -10.0402710000000006   17.2480539999999998    0.0000000000000000
   0.0000000000000000    9.4422680000000003   16.1221950000000014
Ca Sn S
2 2 6
direct
   0.7354780000000000    0.7646229999999991    0.2458520000000000 Ca
   0.2353770000000000    0.2645220000000000    0.7541479999999990 Ca
   0.5000019999999999    0.4999980000000000    0.0000000000000000 Sn
   0.9999969999999990    0.0000030000000000    0.5000000000000000 Sn
   0.0345559999999990    0.9827790000000000    0.9427880000000000 S
   0.0172210000000000    0.9654440000000000    0.0572120000000000 S
   0.4827650000000000    0.5347290000000000    0.5411840000000000 S
   0.4652710000000000    0.5172350000000000    0.4588160000000000 S
   0.2560850000000000    0.2439539999999990    0.3159500000000000 S
   0.7560460000000000    0.7439150000000000    0.6840500000000000 S
