Mo2 W2 Se6 S2
1.0
   1.6456569999999999   -2.8503609999999999    0.0000000000000000
   1.6456569999999999    2.8503609999999999    0.0000000000000000
   0.0000000000000000    0.0000000000000000   37.4232829999999979
Mo W Se S
2 2 6 2
direct
   0.0000000000000000    0.0000000000000000    0.0939110000000000 Mo
   0.3333330000000000    0.6666670000000000    0.6575610000000000 Mo
   0.0000000000000000    0.0000000000000000    0.4696530000000000 W
   0.3333330000000000    0.6666670000000000    0.2817830000000000 W
   0.0000000000000000    0.0000000000000000    0.3270540000000000 Se
   0.0000000000000000    0.0000000000000000    0.7026120000000000 Se
   0.3333330000000000    0.6666670000000000    0.4243650000000000 Se
   0.3333330000000000    0.6666670000000000    0.5149350000000000 Se
   0.0000000000000000    0.0000000000000000    0.2365229999999990 Se
   0.0000000000000000    0.0000000000000000    0.6125189999999990 Se
   0.3333330000000000    0.6666670000000000    0.0529040000000000 S
   0.3333330000000000    0.6666670000000000    0.1349270000000000 S
