Tm3 Al1 N1
1.0
   4.6573477400000005   -0.0000000000000000   -0.0000000000000000
   0.0000000000000000    4.6573477400000005   -0.0000000000000000
   0.0000000000000000    0.0000000000000000    4.6573477400000005
Tm Al N
3 1 1
direct
   0.5000000000000000    0.5000000000000000    0.0000000000000000 Tm
   0.5000000000000000   -0.0000000000000000    0.5000000000000000 Tm
   0.0000000000000000    0.5000000000000000    0.5000000000000000 Tm
   0.0000000000000000   -0.0000000000000000    0.0000000000000000 Al
   0.5000000000000000    0.5000000000000000    0.5000000000000000 N
