Rb16 Be16 N48
1.0
   8.4303659999999994    0.0000000000000000    0.0000000000000000
   0.0000000000000000   14.1111120000000003    0.0000000000000000
   0.0000000000000000    0.0000000000000000   15.1257070000000002
Rb Be N
16 16 48
direct
   0.9228440000000000    0.2524440000000000    0.4780540000000000 Rb
   0.5771560000000000    0.7524440000000000    0.5219460000000000 Rb
   0.4228440000000000    0.7475560000000000    0.0219460000000000 Rb
   0.0771560000000000    0.2475560000000000    0.9780540000000000 Rb
   0.0771560000000000    0.7475560000000000    0.5219460000000000 Rb
   0.4228440000000000    0.2475560000000000    0.4780540000000000 Rb
   0.5771560000000000    0.2524440000000000    0.9780540000000000 Rb
   0.9228440000000000    0.7524440000000000    0.0219460000000000 Rb
   0.2746700000000000    0.4939810000000000    0.6924460000000000 Rb
   0.2253300000000000    0.9939810000000000    0.3075540000000000 Rb
   0.7746700000000001    0.5060190000000000    0.8075540000000000 Rb
   0.7253300000000000    0.0060190000000000    0.1924459999999990 Rb
   0.7253300000000000    0.5060190000000000    0.3075540000000000 Rb
   0.7746700000000001    0.0060190000000000    0.6924460000000000 Rb
   0.2253300000000000    0.4939810000000000    0.1924459999999990 Rb
   0.2746700000000000    0.9939810000000000    0.8075540000000000 Rb
   0.6475449999999990    0.0306889999999990    0.4726970000000000 Be
   0.8524550000000000    0.5306890000000000    0.5273030000000000 Be
   0.1475449999999990    0.9693109999999990    0.0273029999999990 Be
   0.3524549999999990    0.4693110000000000    0.9726969999999990 Be
   0.3524549999999990    0.9693109999999990    0.5273030000000000 Be
   0.1475449999999990    0.4693110000000000    0.4726970000000000 Be
   0.8524550000000000    0.0306889999999990    0.9726969999999990 Be
   0.6475449999999990    0.5306890000000000    0.0273029999999990 Be
   0.9733090000000000    0.2285249999999990    0.2506670000000000 Be
   0.5266910000000000    0.7285250000000000    0.7493329999999990 Be
   0.4733090000000000    0.7714749999999990    0.2493330000000000 Be
   0.0266910000000000    0.2714749999999990    0.7506670000000000 Be
   0.0266910000000000    0.7714749999999990    0.7493329999999990 Be
   0.4733090000000000    0.2714749999999990    0.2506670000000000 Be
   0.5266910000000000    0.2285249999999990    0.7506670000000000 Be
   0.9733090000000000    0.7285250000000000    0.2493330000000000 Be
   0.7476860000000000    0.9313770000000000    0.4846450000000000 N
   0.7523139999999990    0.4313769999999990    0.5153550000000000 N
   0.2476860000000000    0.0686230000000000    0.0153549999999990 N
   0.2523140000000000    0.5686230000000000    0.9846450000000000 N
   0.2523140000000000    0.0686230000000000    0.5153550000000000 N
   0.2476860000000000    0.5686230000000000    0.4846450000000000 N
   0.7523139999999990    0.9313770000000000    0.9846450000000000 N
   0.7476860000000000    0.4313769999999990    0.0153549999999990 N
   0.6752250000000000    0.1197390000000000    0.5395860000000000 N
   0.8247749999999990    0.6197389999999990    0.4604140000000000 N
   0.1752250000000000    0.8802610000000000    0.9604140000000000 N
   0.3247750000000000    0.3802609999999990    0.0395859999999990 N
   0.3247750000000000    0.8802610000000000    0.4604140000000000 N
   0.1752250000000000    0.3802609999999990    0.5395860000000000 N
   0.8247749999999990    0.1197390000000000    0.0395859999999990 N
   0.6752250000000000    0.6197389999999990    0.9604140000000000 N
   0.5489590000000000    0.0537039999999990    0.3825170000000000 N
   0.9510409999999990    0.5537040000000000    0.6174830000000000 N
   0.0489589999999990    0.9462959999999990    0.1174829999999990 N
   0.4510409999999990    0.4462959999999990    0.8825170000000000 N
   0.4510409999999990    0.9462959999999990    0.6174830000000000 N
   0.0489589999999990    0.4462959999999990    0.3825170000000000 N
   0.9510409999999990    0.0537039999999990    0.8825170000000000 N
   0.5489590000000000    0.5537040000000000    0.1174829999999990 N
   0.9963190000000000    0.1451270000000000    0.3086450000000000 N
   0.5036809999999990    0.6451270000000000    0.6913549999999991 N
   0.4963189999999990    0.8548730000000000    0.1913550000000000 N
   0.0036810000000000    0.3548730000000000    0.8086449999999999 N
   0.0036810000000000    0.8548730000000000    0.6913549999999991 N
   0.4963189999999990    0.3548730000000000    0.3086450000000000 N
   0.5036809999999990    0.1451270000000000    0.8086449999999999 N
   0.9963190000000000    0.6451270000000000    0.1913550000000000 N
   0.8917820000000000    0.3372590000000000    0.2238220000000000 N
   0.6082179999999990    0.8372590000000000    0.7761779999999990 N
   0.3917819999999990    0.6627410000000000    0.2761780000000000 N
   0.1082180000000000    0.1627410000000000    0.7238220000000000 N
   0.1082180000000000    0.6627410000000000    0.7761779999999990 N
   0.3917819999999990    0.1627410000000000    0.2238220000000000 N
   0.6082179999999990    0.3372590000000000    0.7238220000000000 N
   0.8917820000000000    0.8372590000000000    0.2761780000000000 N
   0.9795619999999990    0.3139880000000000    0.1680200000000000 N
   0.5204380000000000    0.8139879999999990    0.8319800000000001 N
   0.4795620000000000    0.6860120000000000    0.3319800000000001 N
   0.0204379999999990    0.1860119999999990    0.6680200000000001 N
   0.0204379999999990    0.6860120000000000    0.8319800000000001 N
   0.4795620000000000    0.1860119999999990    0.1680200000000000 N
   0.5204380000000000    0.3139880000000000    0.6680200000000001 N
   0.9795619999999990    0.8139879999999990    0.3319800000000001 N
