Zn4 Cr4 O12
1.0
   5.1055339999999996    0.0000580000000000   -0.0004230000000000
   0.0000590000000000    5.1270490000000004   -0.0003610000000000
  -0.0006180000000000   -0.0005189999999990    7.6469730000000000
Zn Cr O
4 4 12
direct
   0.0143139999999990    0.0303810000000000    0.2500110000000000 Zn
   0.5140859999999990    0.4694859999999990    0.7499660000000000 Zn
   0.4857180000000000    0.5306529999999990    0.2500130000000000 Zn
   0.9859800000000001    0.9692189999999991    0.7499840000000000 Zn
   0.5001090000000000    0.0000370000000000    0.0000810000000000 Cr
   0.9997790000000000    0.4998689999999991    0.0002150000000000 Cr
   0.9998250000000000    0.4999639999999990    0.4998660000000000 Cr
   0.5001040000000000    0.0001210000000000    0.4998550000000000 Cr
   0.8945139999999990    0.5785070000000000    0.7500340000000000 O
   0.3945780000000000    0.9213840000000000    0.2499670000000000 O
   0.6055790000000000    0.0786859999999990    0.7499720000000000 O
   0.1054700000000000    0.4212360000000000    0.2500350000000000 O
   0.6679760000000000    0.3209450000000000    0.4394490000000000 O
   0.1679660000000000    0.1792700000000000    0.5601920000000000 O
   0.8320390000000000    0.8208110000000000    0.0604959999999990 O
   0.3320530000000000    0.6792480000000000    0.9398470000000000 O
   0.6679430000000000    0.3208129999999990    0.0605820000000000 O
   0.1679739999999990    0.1792129999999990    0.9397709999999990 O
   0.3319930000000000    0.6793009999999990    0.5601320000000000 O
   0.8319989999999990    0.8208590000000000    0.4395300000000000 O
