Na2 P2 W4 O16
1.0
   5.4676920000000004    0.0000000000000000    0.0000000000000000
   0.0000000000000000    6.8476770000000000    0.0000000000000000
   0.0000000000000000    1.4628840000000001    9.0380199999999995
Na P W O
2 2 4 16
direct
   0.2500000000000000    0.2750170000000001    0.5637980000000000 Na
   0.7500000000000000    0.7249830000000000    0.4362020000000000 Na
   0.2500000000000000    0.7777800000000001    0.6233980000000001 P
   0.7500000000000000    0.2222200000000000    0.3766020000000000 P
   0.7500000000000000    0.0504390000000000    0.7531350000000000 W
   0.2500000000000000    0.3598390000000000    0.9081130000000001 W
   0.7500000000000000    0.6401610000000001    0.0918870000000000 W
   0.2500000000000000    0.9495610000000000    0.2468650000000000 W
   0.4852110000000000    0.8900490000000001    0.6512540000000000 O
   0.9852109999999999    0.1099510000000000    0.3487460000000001 O
   0.2500000000000000    0.5657090000000000    0.7092920000000000 O
   0.4918930000000000    0.2184960000000000    0.8028440000000000 O
   0.0081070000000000    0.2184960000000000    0.8028440000000000 O
   0.7500000000000000    0.4342910000000000    0.2907080000000000 O
   0.5147890000000001    0.1099510000000000    0.3487460000000001 O
   0.5000000000000000    0.5000000000000000    0.0000000000000000 O
   0.2500000000000000    0.7540859999999999    0.4561360000000000 O
   0.0147890000000000    0.8900490000000001    0.6512540000000000 O
   0.7500000000000000    0.8586339999999999    0.9192170000000001 O
   0.9918929999999999    0.7815040000000001    0.1971560000000000 O
   0.5081070000000000    0.7815040000000001    0.1971560000000000 O
   0.0000000000000000    0.5000000000000000    0.0000000000000000 O
   0.7500000000000000    0.2459140000000000    0.5438640000000000 O
   0.2500000000000000    0.1413660000000000    0.0807830000000000 O
