Na4 Cr4 O14
1.0
  -7.0455740574104206   -0.0012905231299805    0.0033086645279242
   0.6118373576140311    7.0867193438355445   -0.0010483079988742
  -0.0766482572498716   -2.9871525453454550   -6.7038354188374898
Na Cr O
4 4 14
direct
   0.6160944730057406    0.2682659748469605    0.3430539627466659 Na
   0.3838933608323616    0.7318754611810844    0.6570327889422651 Na
   0.8450458217653941    0.1315324467496889    0.7644991169179689 Na
   0.1548614535940238    0.8686484169094095    0.2355129918849937 Na
   0.8818764189963393    0.6560260767041292    0.8164711121303778 Cr
   0.1180296405476376    0.3441356342447166    0.1835116871882185 Cr
   0.6597413653519291    0.7637382334079668    0.2423711336134324 Cr
   0.3401056762190846    0.2358686616458932    0.7574301409908857 Cr
   0.8653824116944125    0.4205759213820531    0.6449662826458299 O
   0.1348410920899123    0.5795305446869863    0.3550416382713588 O
   0.7380842535605791    0.7957598334149018    0.7634458443209909 O
   0.2618152620280873    0.2047084744070812    0.2369894315219689 O
   0.1007412762986728    0.7646320945137266    0.8466652544550433 O
   0.8989887736950660    0.2358123264899671    0.1534078141098019 O
   0.5759915882658504    0.6024750128390284    0.3369206996118899 O
   0.4239076737412711    0.3974528261224030    0.6633002273948527 O
   0.7771590259540111    0.9666014584400097    0.4138065750304511 O
   0.2228625593927449    0.0330541478937910    0.5857235250520864 O
   0.4848919234814441    0.8421958804269133    0.1556483391502360 O
   0.5150365999979436    0.1576997132896032    0.8444047043243730 O
   0.8210603656814630    0.6428635473647840    0.0494717626640813 O
   0.1789367841482025    0.3568006227641424    0.9503449088115088 O
