Na12 Co4 As4 C4 O28
1.0
   0.0472140000000000    6.8705699999999998    5.2818310000000004
   0.0378540000000000   -6.8685010000000002    5.2806270000000000
   9.1312339999999992    0.0060860000000000    0.0963790000000000
Na Co As C O
12 4 4 4 28
direct
   0.5083230000000001    0.2591820000000001    0.0794420000000000 Na
   0.0098340000000000    0.7588260000000000    0.0787420000000000 Na
   0.4920080000000001    0.7430980000000001    0.9194400000000000 Na
   0.9923080000000000    0.2415720000000001    0.9187019999999999 Na
   0.1284850000000000    0.1242260000000000    0.2587019999999999 Na
   0.6260450000000001    0.6228630000000002    0.2581860000000000 Na
   0.3735480000000000    0.8762530000000001    0.2577620000000000 Na
   0.8730600000000001    0.3766700000000001    0.2580100000000000 Na
   0.6279439999999999    0.1237809999999999    0.7415289999999999 Na
   0.1263370000000001    0.6218450000000001    0.7416079999999999 Na
   0.8737070000000001    0.8776480000000002    0.7416220000000000 Na
   0.3721270000000000    0.3760320000000000    0.7416550000000000 Na
   0.2647580000000000    0.5188290000000001    0.3462410000000000 Co
   0.7304950000000001    0.4839280000000001    0.6534079999999999 Co
   0.7668380000000000    0.0168850000000000    0.3413459999999999 Co
   0.2335980000000001    0.9804780000000001    0.6526260000000000 Co
   0.4778310000000001    0.2269690000000001    0.4171599999999999 As
   0.9763110000000002    0.7273140000000001    0.4166640000000000 As
   0.5232130000000002    0.7728170000000001    0.5835900000000001 As
   0.0215920000000000    0.2716490000000000    0.5835359999999999 As
   0.7364750000000001    0.9865120000000002    0.0590430000000000 C
   0.2357350000000001    0.4859490000000001    0.0597920000000000 C
   0.2657160000000000    0.0154440000000000    0.9408180000000000 C
   0.7651620000000000    0.5154730000000000    0.9410880000000000 C
   0.2738270000000000    0.0231970000000000    0.0824110000000000 O
   0.7742570000000001    0.5242150000000001    0.0825490000000000 O
   0.7234690000000001    0.9734480000000001    0.9184550000000000 O
   0.2227560000000000    0.4727950000000001    0.9190080000000000 O
   0.8483910000000000    0.0988590000000000    0.1166370000000000 O
   0.3460050000000001    0.6000180000000002    0.1172030000000000 O
   0.1553970000000001    0.9046850000000001    0.8790289999999999 O
   0.6530600000000001    0.4059990000000001    0.8801549999999999 O
   0.6381370000000001    0.8877190000000003    0.1472960000000000 O
   0.1387650000000000    0.3851260000000000    0.1475590000000000 O
   0.3668940000000000    0.1175430000000000    0.8579809999999999 O
   0.8676090000000001    0.6153720000000001    0.8572719999999999 O
   0.3144560000000000    0.0644160000000000    0.4458140000000000 O
   0.8145950000000001    0.5635830000000001    0.4455669999999999 O
   0.6852880000000001    0.9353640000000002    0.5544339999999999 O
   0.1848930000000000    0.4339940000000000    0.5542959999999999 O
   0.4515800000000000    0.7014600000000000    0.4165809999999999 O
   0.9509339999999999    0.2008210000000000    0.4161850000000000 O
   0.5472910000000000    0.2966270000000000    0.5850570000000000 O
   0.0467690000000001    0.7962910000000001    0.5843830000000000 O
   0.4205430000000000    0.3663680000000000    0.3087400000000000 O
   0.9172880000000001    0.8652710000000001    0.3073680000000000 O
   0.6155330000000000    0.1672790000000000    0.3074030000000000 O
   0.1149580000000001    0.6697330000000001    0.3064740000000000 O
   0.3833380000000001    0.8293990000000001    0.6931019999999999 O
   0.8824140000000000    0.3294570000000000    0.6924390000000001 O
   0.5803540000000001    0.6341300000000001    0.6937989999999998 O
   0.0797500000000000    0.1325900000000000    0.6920869999999999 O
