Na2 Fe6 P6 O26
1.0
   6.3885930000000002    0.0000000000000000    0.0000000000000000
   0.0000000000000000    7.6269309999999999    0.0000000000000000
   0.0000000000000000    1.6948280000000000   10.2635959999999997
Na Fe P O
2 6 6 26
direct
   0.7499999999999999    0.3399990000000000    0.1889300000000000 Na
   0.2500000000000000    0.6600009999999999    0.8110700000000000 Na
   0.2500000000000000    0.6417500000000002    0.1963680000000000 Fe
   0.7499999999999999    0.3582500000000000    0.8036320000000000 Fe
   0.2500000000000000    0.2138710000000000    0.4395010000000000 Fe
   0.4999999999999999    0.0000000000000000    0.0000000000000000 Fe
   0.7499999999999999    0.7861290000000000    0.5604990000000000 Fe
   0.0000000000000000    0.0000000000000000    0.0000000000000000 Fe
   0.2500000000000000    0.7817110000000000    0.4848190000000000 P
   0.7499999999999999    0.2182890000000000    0.5151810000000000 P
   0.2500000000000000    0.2571350000000001    0.7627110000000000 P
   0.7499999999999999    0.7428650000000000    0.2372890000000000 P
   0.7499999999999999    0.6889550000000001    0.8851080000000000 P
   0.2500000000000000    0.3110450000000000    0.1148920000000000 P
   0.7499999999999999    0.6494890000000000    0.7417370000000000 O
   0.5570900000000000    0.2521630000000000    0.4248940000000000 O
   0.2500000000000000    0.2042100000000000    0.6270610000000000 O
   0.5498760000000000    0.7928379999999999    0.9091760000000000 O
   0.7499999999999999    0.3503020000000001    0.6124240000000000 O
   0.7499999999999999    0.1216400000000000    0.9079720000000000 O
   0.2500000000000000    0.6496980000000000    0.3875760000000000 O
   0.0498760000000000    0.2071620000000000    0.0908240000000000 O
   0.2500000000000000    0.9744460000000000    0.4091320000000000 O
   0.7499999999999999    0.0255540000000000    0.5908679999999999 O
   0.0590270000000000    0.3704880000000000    0.7867530000000000 O
   0.2500000000000000    0.8783600000000001    0.0920280000000000 O
   0.5590270000000001    0.6295120000000000    0.2132470000000000 O
   0.7499999999999999    0.4963330000000001    0.9599510000000000 O
   0.7499999999999999    0.7957900000000000    0.3729390000000000 O
   0.4501240000000000    0.2071620000000000    0.0908240000000000 O
   0.9429099999999999    0.2521630000000000    0.4248940000000000 O
   0.4429100000000000    0.7478370000000001    0.5751060000000000 O
   0.4409729999999999    0.3704880000000000    0.7867530000000000 O
   0.2500000000000000    0.3505110000000000    0.2582630000000000 O
   0.7499999999999999    0.9173840000000000    0.1317310000000000 O
   0.2500000000000000    0.0826160000000000    0.8682689999999998 O
   0.9409729999999999    0.6295120000000000    0.2132470000000000 O
   0.9501240000000000    0.7928379999999999    0.9091760000000000 O
   0.0570900000000000    0.7478370000000001    0.5751060000000000 O
   0.2500000000000000    0.5036669999999999    0.0400490000000000 O
