Na6 Sc18 Nb6 Si9 S27 O144
1.0
  17.7671626972080965   -0.0137559209432080   -0.0110466902919253
  -4.4477221990515829    7.6868334477448430    0.0067229883134584
  -0.0135968339309452    0.0122171302895096   23.1107782918962279
Na Sc Nb Si S O
6 18 6 9 27 144
direct
   0.9936907052854611    0.9793533567216162    0.5005581211263209 Na
   0.4997277375975597    0.0100232486032445    0.9989456995971874 Na
   0.3522083953137585    0.3429903649476330    0.8338778044070273 Na
   0.8344941478008114    0.3619440726520793    0.8308428471453885 Na
   0.3377289821180741    0.3157904204689752    0.3350321307987640 Na
   0.8465370285959023    0.3464449594653415    0.3401006573277668 Na
   0.0031590559083455    0.9929726714056740    0.3599945213216345 Sc
   0.5018969850432372    0.0119009270361954    0.8576658628931159 Sc
   1.0003657664638947    0.9944843382527024    0.6498368219811285 Sc
   0.5011694727917182    0.0072261826947459    0.1498406249022456 Sc
   0.3287346258800863    0.3380310118936663    0.6852561169636864 Sc
   0.8371259212813768    0.3374496645449711    0.6854267195124982 Sc
   0.3405626472412305    0.3345782187226672    0.1893945863634448 Sc
   0.8278901207553973    0.3173681042688082    0.1855381962787237 Sc
   0.3361192850196641    0.3337759849448145    0.9784382553903671 Sc
   0.8378552260822506    0.3332665396780753    0.9782031878769208 Sc
   0.3379856833287991    0.3425443914926968    0.4795495790978783 Sc
   0.8312607059568012    0.3315982252681969    0.4820349067802034 Sc
   0.1657133367260867    0.6653553953528136    0.0204867220728824 Sc
   0.6675847202878845    0.6761851888321038    0.5242875400960564 Sc
   0.1612161099504509    0.6751858253454281    0.3132757102918986 Sc
   0.6666139070482267    0.6639625678734852    0.3069556800235506 Sc
   0.1668080853514206    0.6706989193553777    0.8059288252463832 Sc
   0.6600801397789702    0.6461377988595715    0.8121034181800251 Sc
   0.4933510310829500    0.0046361144122043    0.3575633418105661 Nb
   0.9922553566430179    0.9809547212103953    0.8561356291366974 Nb
   0.4995318837979958    0.9917094107533263    0.6412605163459116 Nb
   0.9960962655958296    0.0017094977405022    0.1434873816465034 Nb
   0.6705282979531918    0.6600967074265468    0.0181049881978402 Nb
   0.1698563979993074    0.6804816303993590    0.5185778900268406 Nb
   0.4988142862557728    0.2902492042523244    0.2491784761546907 Si
   0.9964220922362533    0.7015321832124713    0.7491973133763469 Si
   0.6950427846660735    0.0507467447626476    0.5843844971877625 Si
   0.3281940685268097    0.6118771992640030    0.5828866388374776 Si
   0.8284626221830961    0.0452408483744901    0.0826078169522418 Si
   0.8070937671111845    0.6498604933260158    0.9126637184900539 Si
   0.5183153370244594    0.3735188786454166    0.9147163500831218 Si
   0.3065223231597498    0.9651846859973559    0.4128916355609647 Si
   0.0165178976159782    0.6570105438325166    0.4146115463764865 Si
   0.1437606983944229    0.0060261244592261    0.2491282423141588 S
   0.6466467580442165    0.0106197213797553    0.2527250210516588 S
   0.3565944213741495    0.7073683536980604    0.2518534814283404 S
   0.8605355258237911    0.7112874974014192    0.2509919290406561 S
  -0.0017875348118530    0.2840650811547052    0.2505799523290312 S
   0.1472552294101112    0.2826835272731080    0.7538352800212856 S
   0.6428422275942891    0.2822848478765930    0.7501985425255033 S
   0.4967791959019895    0.7123718730099079    0.7516615427195517 S
   0.3602047259122685    0.0116198169392832    0.7522097697474619 S
   0.8566428671634059    0.0076429148789424    0.7527203857297773 S
   0.4762534242437311    0.3310668191921572    0.5847169486068787 S
   0.9811769415656031    0.3328998636944089    0.5823835371410524 S
   0.1864065014604698    0.0448744100215205    0.5816371935540275 S
   0.8376222390828706    0.6307359444045731    0.5811542886104010 S
   0.4786854793400886    0.6263189933655766    0.0821855728471175 S
   0.9777972006797102    0.6231270704260887    0.0843704742591126 S
   0.3338281484750718    0.0411261066043152    0.0819276318571667 S
   0.1887001533037034    0.3338113111119703    0.0849342114109831 S
   0.6869342496765309    0.3282539936234660    0.0812652387835223 S
   0.3109008078427296    0.6672964845803009    0.9175335778463087 S
   0.0258378402583374    0.3787778206801347    0.9146366703585398 S
   0.1658524927127633    0.9551785140240193    0.9154722688696162 S
   0.6664503406323918    0.9515386525166944    0.9164385618291752 S
   0.8118295699584408    0.9542370135436216    0.4154277999441510 S
   0.1677740396577446    0.3827803497708084    0.4158772362762109 S
   0.6674491204593448    0.3779833219230211    0.4136269266786022 S
   0.5242400589538708    0.6698063896521186    0.4132084327768895 S
   0.1049480644129980    0.0301631866077544    0.3021545385871744 O
   0.5994307283701864    0.0236620475085427    0.3036867534702541 O
   0.4129198876010103    0.7909717951607356    0.3047834724687086 O
   0.9154346759344427    0.7950346170920767    0.3018503017560026 O
   0.4854220914652468    0.1582614116702599    0.3063041376479309 O
   0.9853047592813081    0.1739142100017808    0.3010104715337316 O
   0.1003224328872713    0.1749334941931004    0.8055251546241944 O
   0.6034199008657902    0.1809807375315899    0.8041569255017578 O
   0.4831182393384201    0.7938784301691082    0.8031741581718548 O
   0.9860217308814007    0.8112349520622416    0.8076018903809850 O
   0.4129710820329986    0.0362974058845995    0.8051654616896948 O
   0.9139062854681469    0.0305098940621849    0.8061313477522316 O
   0.4045577812933848    0.9975087321918589    0.7000251133873456 O
   0.9019577855113483    0.9958388823580882    0.7011891387469855 O
   0.0976112070244939    0.2063635324055438    0.7003302957759088 O
   0.5875654741294999    0.1848945039590730    0.6996905804993032 O
   0.0081593828112544    0.8243703524306329    0.6943605031756873 O
   0.4994264959743767    0.8126517712280020    0.6982638861427022 O
   0.4019153665787125    0.8103963204088145    0.1998699681726693 O
   0.9059385090000769    0.8169431518172993    0.1970274387721249 O
   0.0009733843880001    0.1866414041330143    0.1960765200835075 O
   0.5082519745715981    0.1941254749887850    0.1927490145702012 O
   0.0892115838586008    0.9950891359164451    0.1975188322339607 O
   0.5977098738314885    0.9889353734424987    0.1986637325065736 O
   0.4346287213230635    0.3580621148694088    0.6356835841646513 O
   0.9460070217386461    0.3642423847424996    0.6359779571149474 O
   0.2368257186092063    0.1166301999710957    0.6352046156302134 O
   0.7525945287978428    0.1387873024552395    0.6414043953692196 O
   0.3106807769443570    0.4959655995359177    0.6408529882557839 O
   0.8311189655199606    0.5314841475613208    0.6338759178252429 O
   0.4394448888987630    0.5230604853616806    0.1354752936129954 O
   0.9358852374491409    0.5146323078674185    0.1354511735623768 O
   0.3242680169655306    0.1250527263663392    0.1343800641904918 O
   0.8128705742148490    0.1251293766415727    0.1412233638960256 O
   0.2421114115924458    0.3621738722714762    0.1364522447408978 O
   0.7369056402088384    0.3550366293687015    0.1349718090493313 O
   0.2217208523522566    0.2893980015287263    0.0336412892128257 O
   0.7313762225127914    0.3131142103316037    0.0299712809096159 O
   0.4202861421482826    0.5405759688039066    0.0319501521178771 O
   0.9238127072973945    0.5614868664182621    0.0321747923327609 O
   0.3478194995715644    0.1512158516219875    0.0302617853913354 O
   0.8554894764606872    0.1744105634967547    0.0284960648752780 O
   0.2303711514342431    0.1493103029750088    0.5301659288281892 O
   0.7299927807617420    0.1742107333998127    0.5282177973539176 O
   0.3537201209465149    0.5358010567672161    0.5281449299825391 O
   0.8582201988566410    0.5596538866228845    0.5293851869379151 O
   0.4214154410235222    0.2864800660326611    0.5326796177036888 O
   0.9237756061880406    0.3018183343491708    0.5320829792687168 O
   0.2673891232355178    0.6881156008827357    0.9698202424141505 O
   0.7615004934043164    0.6764335282428512    0.9724505628039321 O
   0.0738959098696650    0.4579598370957822    0.9692287534891525 O
   0.5800849530451183    0.4835070012043743    0.9716336743719344 O
   0.1524095009132493    0.8476753809312192    0.9677291766535542 O
   0.6587350089236792    0.8479296452962354    0.9698791330491836 O
   0.2615213004727169    0.8468892430906663    0.4719972637907280 O
   0.7693483398533872    0.8458868325028617    0.4669420402101981 O
   0.1601854202257113    0.4695641071454489    0.4689795207156776 O
   0.6526465669081980    0.4520978047082062    0.4656279336522940 O
   0.0804696176195469    0.6746673264092422    0.4706308194646009 O
   0.5721526703510120    0.6876104106751214    0.4668243769358559 O
   0.0592517259730334    0.6351695594749336    0.3553412959665736 O
   0.5681639458923903    0.6501682483565052    0.3621352341465119 O
   0.2492298585987976    0.8712340253123450    0.3566662470441883 O
   0.7648582002938554    0.8684774060062955    0.3618025959836061 O
   0.1766111852705807    0.4828584309104951    0.3631606140836165 O
   0.6779528966995167    0.4815059036086957    0.3612669648236669 O
   0.0707990542849872    0.4903480305680363    0.8647873509192719 O
   0.5580494748578958    0.4823898043396436    0.8560947518823949 O
   0.1815595814165474    0.8792657914990096    0.8639490193455981 O
   0.6758657494145696    0.8699846262840126    0.8641904454921311 O
   0.2634870980640082    0.6576171911415390    0.8646215284618231 O
   0.7482698346859208    0.6288890035897176    0.8578041277706053 O
   0.0145270951061137    0.8410771156532745    0.4142204046499854 O
   0.5174763595086120    0.8308482845515076    0.4051795194385004 O
   0.4013028363158136    0.9644230436550993    0.4054580159489982 O
   0.9022443834523796    0.9809436365204534    0.4129960221133044 O
   0.0870787750921710    0.2087476503008472    0.4136099136506770 O
   0.5862042186001574    0.1975246504793864    0.4053911543966670 O
   0.0201254757114253    0.2062755391507007    0.9076999118436576 O
   0.5128766065451301    0.1838814364903935    0.9154588930123349 O
   0.0850292851302640    0.9680976256139843    0.9083006780072125 O
   0.5858642106650874    0.9635370671881747    0.9148454574494763 O
   0.4009383665943737    0.8192731572833284    0.9160985636146851 O
   0.9017258227705318    0.8395121017024380    0.9064915717586358 O
   0.4879105223807336    0.1761543849784936    0.5972200860809994 O
   0.9933355190778740    0.1801128975534858    0.5886395309176096 O
   0.0989180223346615    0.0266181222090362    0.5858366475495779 O
   0.5932247795533380    0.0182877540371829    0.5999063767593975 O
   0.4108235980747376    0.8110558351358689    0.5993407628454288 O
   0.9106338483574842    0.8155527599661062    0.5871030853528785 O
   0.4903185349402135    0.8029894617941726    0.0876658618673292 O
   0.9930050336715419    0.8053549223532505    0.0969874106885382 O
   0.4097874316826888    0.0136444675289597    0.0868350835283328 O
   0.9124586039578255    0.0107428480907613    0.0984208360651735 O
   0.0971870077622450    0.1779331834839282    0.0964028978064138 O
   0.5991846104271243    0.1706637093038794    0.0849820280429922 O
   0.3483564772358012    0.1649443396362695    0.7470961375687756 O
   0.8507212344527144    0.1672903584022639    0.7516073509047481 O
   0.2329061074834770    0.2894432190693920    0.7515408372682044 O
   0.7303341964004986    0.3040074344667208    0.7448432917354179 O
   0.4204906761550702    0.5326081619987655    0.7463076616004312 O
   0.9089712129819163    0.5155939022326537    0.7486505618137331 O
   0.3477045911095142    0.5317620012104429    0.2476486627821138 O
   0.8497343336678587    0.5367190430149644    0.2439295255598465 O
   0.4104758546974189    0.3026800097933384    0.2469967484314851 O
   0.9217441213557800    0.3086545122300373    0.2443811229616791 O
   0.2309548676784610    0.1618752466555451    0.2419820047247915 O
   0.7325575658766409    0.1766921403728468    0.2503714388493018 O
   0.3145872522084708    0.5041469878824353    0.9234608071263182 O
   0.8285287380824672    0.4960373323184341    0.9210638523141260 O
   0.4210892673587006    0.3483609345229110    0.9238946942741840 O
   0.9369619751326116    0.3535158141356056    0.9180574569784135 O
   0.2396066287047089    0.1335587590078500    0.9236008016445099 O
   0.7433791479333631    0.1282690319519762    0.9223618352186607 O
   0.3289135450977617    0.1623306482325074    0.4209082804597973 O
   0.8175477983804332    0.1261840401573035    0.4198526068377325 O
   0.2443957907626343    0.3592539532792322    0.4209209545983463 O
   0.7422804492049165    0.3503882150164289    0.4178104059593585 O
   0.4347845649618831    0.5178401391678474    0.4159652195073034 O
   0.9204177966484512    0.4909593884836013    0.4226930076791733 O
   0.1761836354128391    0.4837996616835854    0.0747880988126116 O
   0.6752131386330843    0.4842384575296307    0.0747982805052452 O
   0.0642146559760394    0.6425759051886345    0.0752077391333730 O
   0.5644134703533453    0.6399724938650659    0.0728288107323803 O
   0.2535653832717316    0.8697564663669665    0.0739616482994131 O
   0.7464214958323859    0.8513156140627657    0.0685478378157294 O
   0.1742981375372093    0.8651290411624517    0.5745718135886132 O
   0.6772444937014914    0.8561065361819942    0.5719499107106790 O
   0.2462294548560893    0.6414411889960731    0.5680715013585346 O
   0.7554548582585503    0.6311718408611823    0.5725614281764988 O
   0.0682259027469807    0.4896800713628225    0.5717727603106024 O
   0.5627134777891404    0.4813308213399033    0.5751989566493870 O
   0.1483541974442948    0.8461323986844378    0.2498880033477687 O
   0.6614724536587593    0.8630661784138278    0.2593775184576253 O
   0.2720998972024687    0.6942867481392430    0.2582939170988341 O
   0.7769236372531850    0.7052819988995477    0.2544269676789601 O
   0.0797985635137625    0.4490722772681575    0.2512387306601301 O
   0.5838147518382720    0.4758215405136765    0.2608023115065914 O
   0.1614593690452897    0.4595855753465556    0.7611089107894852 O
   0.6467346169534007    0.4516324389300317    0.7517647288350430 O
   0.0834990757955446    0.6929276714509996    0.7621729642362373 O
   0.5783399761208341    0.7100461715780032    0.7542656090972540 O
   0.2753071358757065    0.8509158517869683    0.7573120284698778 O
   0.7723987372615664    0.8511166862170161    0.7599692840464587 O
