Na4 Fe4 Cl16
1.0
   6.3353979999999996    0.0000000000000000    0.0000000000000000
   0.0000000000000000   10.0561629999999997    0.0000000000000000
   0.0000000000000000    0.0000000000000000   10.5587730000000004
Na Fe Cl
4 4 16
direct
   0.0612730000000000    0.5354060000000000    0.6330850000000000 Na
   0.4387270000000000    0.4645940000000001    0.1330850000000000 Na
   0.9387270000000000    0.0354060000000000    0.8669150000000000 Na
   0.5612730000000000    0.9645940000000000    0.3669150000000000 Na
   0.9582750000000000    0.7396690000000000    0.2114460000000000 Fe
   0.4582749999999999    0.7603310000000000    0.7885540000000000 Fe
   0.0417250000000000    0.2396690000000000    0.2885540000000000 Fe
   0.5417250000000000    0.2603310000000000    0.7114460000000000 Fe
   0.3265210000000000    0.5782760000000000    0.8776929999999999 Cl
   0.1734790000000000    0.4217240000000000    0.3776930000000000 Cl
   0.6734790000000000    0.0782760000000000    0.6223070000000001 Cl
   0.8265210000000000    0.9217240000000000    0.1223070000000000 Cl
   0.1917230000000000    0.2590750000000000    0.7161800000000000 Cl
   0.6917229999999999    0.2409250000000000    0.2838200000000000 Cl
   0.8082770000000001    0.7590750000000001    0.7838200000000001 Cl
   0.3082770000000000    0.7409249999999999    0.2161800000000000 Cl
   0.6472810000000000    0.4355150000000000    0.6027620000000000 Cl
   0.1472810000000000    0.0644850000000000    0.3972380000000000 Cl
   0.3527190000000000    0.9355150000000000    0.8972380000000000 Cl
   0.8527190000000000    0.5644850000000000    0.1027620000000000 Cl
   0.8242150000000000    0.7355750000000000    0.4051040000000000 Cl
   0.3242150000000000    0.7644250000000000    0.5948960000000000 Cl
   0.1757850000000000    0.2355750000000000    0.0948960000000000 Cl
   0.6757850000000000    0.2644250000000000    0.9051040000000000 Cl
