Na6 Nb20 Zn4 Si21 S15 O144
1.0
  17.7759977755454273    0.0102689462382452   -0.0003001209592688
  -4.4395639163115410    7.7015390268084660    0.0000470536642858
  -0.0010504247677312   -0.0009971618042355   22.9808826525593091
Na Nb Zn Si S O
6 20 4 21 15 144
direct
   1.0013408439699751    1.0013901953551592    0.4992015076729880 Na
   0.5012969367453879    0.0079216762617731    0.0026698783368602 Na
   0.3526897690228547    0.2408387771392003    0.8386122996375489 Na
   0.8073940208753031    0.3045816894591346    0.8339018161565506 Na
   0.3243210079309221    0.3146297260396743    0.3314549336655519 Na
   0.8401605492769721    0.4694603980423939    0.3395744320271898 Na
   0.5007861446457161    0.9946512780125921    0.3597431519932185 Nb
   0.9951305129831677   -0.0020466217434061    0.8611580385721888 Nb
   0.4952001046090551    0.9854943319024401    0.6391102539567906 Nb
   0.9960388721776521    1.0037201353300587    0.1388630930874645 Nb
   0.3329710712662505    0.3305261558429682    0.6864484011119113 Nb
   0.8423274209675473    0.3227770095815449    0.6856041156161944 Nb
   0.3430036545906910    0.3646164650699097    0.1863910644411869 Nb
   0.8294839316870114    0.3249997500794883    0.1907826419910323 Nb
   0.3322346363452304    0.3317450992541571    0.9772590534304469 Nb
   0.8447619672170295    0.3480156589934466    0.9773159047208663 Nb
   0.3422230397480646    0.3413224789164239    0.4755337854161196 Nb
   0.8303820599290573    0.3244687365825629    0.4758300778774650 Nb
   0.1606739789281868    0.6625901482403599    0.0249138793015385 Nb
   0.6682918514820544    0.6612782922452856    0.0262931279290209 Nb
   0.1672152580993874    0.6750126063085713    0.5256266914618171 Nb
   0.6609774483096967    0.6580901145141237    0.5250686073809685 Nb
   0.1613353821248848    0.6745536324083146    0.3129270280172144 Nb
   0.6685316748141518    0.6665176887231733    0.3065536855306394 Nb
   0.1696803058746257    0.6747585928241716    0.8089949007353345 Nb
   0.6633530786315193    0.6523948784772193    0.8129436360793619 Nb
   0.9953445633177558    0.9609486494966979    0.3548763195033970 Zn
   0.4941782676813832    0.0285310057985369    0.8563024613921203 Zn
   0.9821799806143778    0.0065591290052307    0.6444401143601460 Zn
   0.4864573727977669    0.9323864554845336    0.1519291603459319 Zn
   0.6382283885665778    1.0034235850287199    0.2498546336556702 Si
   0.3529450190956842    0.7188670110629816    0.2512670042173751 Si
   0.8615845862989407    0.7245001446996490    0.2502159302709497 Si
   0.3599886555924019   -0.0028401787358599    0.7507379096784546 Si
   0.8543107647589980    0.9931117320921194    0.7507990173283428 Si
   0.4757346951552405    0.3266511169899851    0.5820120162356860 Si
   0.9796234300654149    0.3242671596798134    0.5791734042664313 Si
   0.6934136385702172    0.0444617631596033    0.5834268614456249 Si
   0.3284049543235539    0.6093616710469103    0.5840325375948170 Si
   0.4797705794224070    0.6353421533995026    0.0793760124291082 Si
   0.9754493007722748    0.6199314421573500    0.0851478343376885 Si
   0.8306058416329063    0.0505206283713589    0.0838084514879016 Si
   0.1938251029348835    0.3388889512259227    0.0827146649940157 Si
   0.8046001921908565    0.6519466442759170    0.9169200292447975 Si
   0.0278426181818003    0.3846446800776694    0.9162278637766965 Si
   0.5242523322817972    0.3729372352686532    0.9193756969906847 Si
   0.1693104160654819    0.9531867839404801    0.9145183909047566 Si
   0.3053888779135440    0.9534065425916420    0.4168748410551735 Si
   0.6666811617963261    0.3858259831401774    0.4140233067088092 Si
   0.0220524643302928    0.6737646249872633    0.4189071763431738 Si
   0.5295290413298398    0.6701886083368473    0.4170865182826161 Si
   0.1489747262078698    0.0096730340405771    0.2496384137783007 S
  -0.0027328373165614    0.2800914476917650    0.2518126628074935 S
   0.4999981256461354    0.2867732801227654    0.2486806561061055 S
   0.1422027125188617    0.2792467502708057    0.7510430073940108 S
   0.6484211136011439    0.2894865251888765    0.7498632532417279 S
   1.0024261288320542    0.7175446859893997    0.7470407526352886 S
   0.4945058684824628    0.7075076839316938    0.7517046409954885 S
   0.1866345113885966    0.0495136581494217    0.5809533163912370 S
   0.8368794199363832    0.6190122001367240    0.5804531075229764 S
   0.3357797213460506    0.0512089501586047    0.0793844462783716 S
   0.6895791028126228    0.3274894717767263    0.0800394713421941 S
   0.3112696939164580    0.6688329732314761    0.9165934593875921 S
   0.6646270791924211    0.9476817494941109    0.9195377502716877 S
   0.8124005856493618    0.9507324186928688    0.4182865770902099 S
   0.1653513510222135    0.3830898507466135    0.4205732172064117 S
   0.1182584430546022    0.0486996797517873    0.3033930298228217 O
   0.5949548892449270    0.0456280946063559    0.3064721859713423 O
   0.4178698502643939    0.8111006434668455    0.3065116934944098 O
   0.9129278831437063    0.7642746149778337    0.3103709461968913 O
   0.4823117601074784    0.1892062938031585    0.3033243076566119 O
   0.9800065084227326    0.1619355531265181    0.2999798098878232 O
   0.1038926838684438    0.1717921105632216    0.8039402280838364 O
   0.6176140226218184    0.1895263082136261    0.8038228293993417 O
   0.4750871024897909    0.7875063459897802    0.7998581123609007 O
   0.9892939042688147    0.7949649877018999    0.8000855770710443 O
   0.4118868172279054    0.0614304184878820    0.8105097844681461 O
   0.9197348537373323    0.0270566400883381    0.8065777036968917 O
   0.4126605590974589    0.9703672982787326    0.6971271110767718 O
   0.8850389236226145    0.9480184389104772    0.6925209392993454 O
   0.0902621515285451    0.2093234411570914    0.6989902259747084 O
   0.5962151306815866    0.2004075972490296    0.6983509529243338 O
   0.0194908647871412    0.8194905756175178    0.6947346086479708 O
   0.5094344455518580    0.8000568054011250    0.6955288103673528 O
   0.3773465257663942    0.8178769813518975    0.1912170969749926 O
   0.9138188222407949    0.8614395916271133    0.1973875436453272 O
   0.0147813067301590    0.2211871253758873    0.1956295906896364 O
   0.5148014081046285    0.2126833443945677    0.1974548460570330 O
   0.0968630930861619    0.9920440310043401    0.1979027434685623 O
   0.5859927987324792    0.9576326090232182    0.1911261693647532 O
   0.4230081713191884    0.3541855392445228    0.6359472819203185 O
   0.9355877840278359    0.3507765504862210    0.6410587459636869 O
   0.2390666755027128    0.1346248661069295    0.6349109497476557 O
   0.7560074585272143    0.1450284812165533    0.6405675906062167 O
   0.3146962189249661    0.4947386277212838    0.6428649391283936 O
   0.8273967210598162    0.5091994408526169    0.6322898619638362 O
   0.4360499993281116    0.5193416148244755    0.1405231848379994 O
   0.9237525008419439    0.4843657884609809    0.1359158178348845 O
   0.3233701990349507    0.1420814210127756    0.1292401738151850 O
   0.8151015113116917    0.1332669809948569    0.1421291368022192 O
   0.2566625007841194    0.3683280573611179    0.1389181581767775 O
   0.7383590179332012    0.3433506974480438    0.1341453551836833 O
   0.2337503373718950    0.2991151206894427    0.0244974464447749 O
   0.7399470804504826    0.3260866329803204    0.0278387786216869 O
   0.4132389780352297    0.5080488705305698    0.0268757888483547 O
   0.9217906025345424    0.5422485746994105    0.0219538654870609 O
   0.3371590960740987    0.1432251935273303    0.0228820305567800 O
   0.8448321648349735    0.1754783066408902    0.0272508765930034 O
   0.2329270862800427    0.1516328704970415    0.5287725967327543 O
   0.7337040947344162    0.1680410415440124    0.5269530603276738 O
   0.3416902029214843    0.5106751965387719    0.5283537445133951 O
   0.8405844562307950    0.5313963203311417    0.5259199444738530 O
   0.4179620648427124    0.2978808105352103    0.5231579860449747 O
   0.9126167884938577    0.3115548207241646    0.5274339585973947 O
   0.2665601852977050    0.6879280034774836    0.9678759643810624 O
   0.7642720088820301    0.6872799860612649    0.9742731910370216 O
   0.0816807357071644    0.4729999029423026    0.9757228116200221 O
   0.5868874173903276    0.4921763799855765    0.9726410187795100 O
   0.1588434405791507    0.8338709280016494    0.9710194118532773 O
   0.6620591072107948    0.8581183450733058    0.9745295873226729 O
   0.2629722322470524    0.8408911666511262    0.4759548620803715 O
   0.7681552605262650    0.8471072075213170    0.4708258473103552 O
   0.1635882861250885    0.4667802530198891    0.4762527457526049 O
   0.6600148713190294    0.4893393647338782    0.4722245774910635 O
   0.0851022064565159    0.6786128625532797    0.4723121606692884 O
   0.5812162461318356    0.6915037549602910    0.4787077651406755 O
   0.0614518062981394    0.6391076331748831    0.3582572908537955 O
   0.5773178832285837    0.6325668643568146    0.3647202458765503 O
   0.2385539751663382    0.8598052654177213    0.3621735223622140 O
   0.7631186127564318    0.8718113731051165    0.3645724028740684 O
   0.1750975564766387    0.4961221541392280    0.3700315729123332 O
   0.6906383313208473    0.5071250099336380    0.3561061722828446 O
   0.0773745994730922    0.5052017342970644    0.8603586226553680 O
   0.5652789239760931    0.4857812986475110    0.8583929581778780 O
   0.1861076585177184    0.8634659604776731    0.8557705332695299 O
   0.6750851218033092    0.8544437096586174    0.8682451191464001 O
   0.2605069094275035    0.6490723088478353    0.8621061380406375 O
   0.7424828294205674    0.6231925854763788    0.8597955412666017 O
   0.0192319083417363    0.8506252579477857    0.4202950999838935 O
   0.5183888079799607    0.8391311040784715    0.4083274336916845 O
   0.3994241961687781    0.9779355352346690    0.4025449407106402 O
   0.9011575232327063    0.9822965546358707    0.4162870522496521 O
   0.0879392123855722    0.2133512079744424    0.4157777102941814 O
   0.5768487086876208    0.2040286136255070    0.4057677446554455 O
   0.0170096743172284    0.1918815148485442    0.9078935647010102 O
   0.5191836983032624    0.1883474235227292    0.9205117880854676 O
   0.0810594806119437    0.9604021287740054    0.9007334967381910 O
   0.5864861402376556    0.9601241407877270    0.9136162415148502 O
   0.3990589535859086    0.8171336856178126    0.9131964905852178 O
   0.9007084309914249    0.8191273865393811    0.9029276972991128 O
   0.4854582623355974    0.1574086672199213    0.5952479105967527 O
   0.9888037085897405    0.1556576324374830    0.5802888022353190 O
   0.1006120132495783    0.0274568468238771    0.5846943556946116 O
   0.5984445619960507    0.0169448868036337    0.6006775625932164 O
   0.4188606394252994    0.7950801362585458    0.5932243601409836 O
   0.9166836085562065    0.7869055892488027    0.5833114954234012 O
   0.4815686571688367    0.8148324279304949    0.0778656862952964 O
   0.9862449072418729    0.8107662919811200    0.0961491037702459 O
   0.4156225657210650    0.0462286811108372    0.0817481965980496 O
   0.9203308304947926    0.0426565185379733    0.0923949094307314 O
   0.0988820732581589    0.1760058466342580    0.0987160287493256 O
   0.6034524713841871    0.1794129091475754    0.0787994796239424 O
   0.3363437860822665    0.1518801902535198    0.7327991401405825 O
   0.8463913635684267    0.1762944191527950    0.7456812756214506 O
   0.2307921004818957    0.2962236714827984    0.7441072701982057 O
   0.7415644904985519    0.3349991744003482    0.7411659888822231 O
   0.4182685103569883    0.5213739861592325    0.7437289928852181 O
   0.9234333737836516    0.5393508066893453    0.7416751479702112 O
   0.3448048481140596    0.5183261299163747    0.2445200059626912 O
   0.8421934014450447    0.5282724043274594    0.2312350431272453 O
   0.4212395135305937    0.3120871846534235    0.2409139714953793 O
   0.9206662367195310    0.3094071767143398    0.2442786968486588 O
   0.2419572470239433    0.1493536662839927    0.2404508886730908 O
   0.7375416313807468    0.1764705026549567    0.2419790211353161 O
   0.3135783341397383    0.5033747564540407    0.9207946758442960 O
   0.8136638856623502    0.4779620189059012    0.9205125927509767 O
   0.4276413349991033    0.3570567700508355    0.9254225801277082 O
   0.9293442796017344    0.3573655051041747    0.9218985847373652 O
   0.2529531762837525    0.1466314235348521    0.9193888903652429 O
   0.7452092365901606    0.1242763368109125    0.9200701706791997 O
   0.3130980433607543    0.1467393688873509    0.4231901903262601 O
   0.8149770168007622    0.1236416869827051    0.4234391198809876 O
   0.2464046217989105    0.3671400083631626    0.4210351613593766 O
   0.7487715459883607    0.3516786775529960    0.4249202386652945 O
   0.4294940944125824    0.5006341565526004    0.4238176527581117 O
   0.9248701522961970    0.4980661893957342    0.4264557063721092 O
   0.1873497003937152    0.5132417946286185    0.0707515573937658 O
   0.6865037513055597    0.4947770013066348    0.0774661258133992 O
   0.0725795941668528    0.6474653750377248    0.0751560977417223 O
   0.5726962323914339    0.6419487584898267    0.0717872033805868 O
   0.2571830112204385    0.8749131943197245    0.0747493993148730 O
   0.7515140967359610    0.8576541238899432    0.0720333910254045 O
   0.1831184376698867    0.8772719322701138    0.5786632580190679 O
   0.6893612705832711    0.8601014702624659    0.5736509460728834 O
   0.2494536291916401    0.6450583713138404    0.5742575010777922 O
   0.7582616044659118    0.6373064235551112    0.5773322954587331 O
   0.0715566202721372    0.5054924834571118    0.5723088429436273 O
   0.5715229922228608    0.4958088507843986    0.5763571486341756 O
   0.1502676492993378    0.8400889148165478    0.2551842855966948 O
   0.6556856640674241    0.8441524801863761    0.2704762829482383 O
   0.2534346577486716    0.6720403187299209    0.2711416882750929 O
   0.7656480039206168    0.7087254546561159    0.2582116227510405 O
   0.0742414426707410    0.4552275488674812    0.2634773436731270 O
   0.5762069880446924    0.4695105378640204    0.2572865129887059 O
   0.1572500778578846    0.4583689986341425    0.7622579338894724 O
   0.6496638431497066    0.4615958190755168    0.7546849961656851 O
   0.0785193387638204    0.6863249860272844    0.7574869606815725 O
   0.5722337799043259    0.6891947385965553    0.7624840113822901 O
   0.2648614090885008    0.8174510999957115    0.7581918509220158 O
   0.7553694316024142    0.8391172929135968    0.7693101905840440 O
