Na8 Ni6 Sb4 O20
1.0
  -4.6054089999999999    2.6589380000000000   -0.0463900000000000
  -3.0613239999999999   -7.1716270000000000    5.4940980000000001
   4.6801389999999996    6.2370000000000001    5.4940949999999997
Na Ni Sb O
8 6 4 20
direct
   0.7500120000000001    0.4445290000000000    0.0554860000000001 Na
   0.2499870000000000    0.9445130000000000    0.5554700000000001 Na
   0.7500140000000000    0.2554789999999999    0.2445410000000000 Na
   0.2499830000000000    0.7554600000000001    0.7445200000000001 Na
   0.2500020000000001    0.5484410000000001    0.9515600000000001 Na
   0.7500010000000000    0.0484410000000000    0.4515600000000000 Na
   0.7499999999999999    0.6515029999999999    0.8484860000000000 Na
   0.2500010000000000    0.1515150000000000    0.3484980000000000 Na
   0.9999709999999999    0.6000389999999999    0.3999460000000001 Ni
   0.9999930000000000    0.7998789999999999    0.2001360000000001 Ni
   0.5000159999999998    0.9001269999999999    0.0998590000000002 Ni
   0.4999820000000000    0.1000430000000000    0.8999509999999998 Ni
   0.5000040000000000    0.2998509999999999    0.7001620000000000 Ni
   0.0000060000000000    0.4001179999999999    0.5998740000000000 Ni
   0.5000009999999999    0.4969310000000000    0.5030690000000001 Sb
   0.0000070000000000    0.9969469999999999    0.0030610000000001 Sb
   0.5000040000000000    0.7030880000000000    0.2969120000000001 Sb
   0.0000010000000000    0.2030800000000000    0.7969200000000000 Sb
   0.8767770000000001    0.1971860000000000    0.9971890000000000 O
   0.3767600000000000    0.6971799999999999    0.4971830000000001 O
   0.6232420000000000    0.5028179999999999    0.3028210000000000 O
   0.1232240000000001    0.0028120000000000    0.8028149999999998 O
   0.3546730000000001    0.2981950000000000    0.8946740000000000 O
   0.8546770000000000    0.7982019999999999    0.3946660000000001 O
   0.8546080000000000    0.5946649999999999    0.5981770000000000 O
   0.3545950000000000    0.0946760000000000    0.0981750000000000 O
   0.6454090000000000    0.9018259999999999    0.9053260000000001 O
   0.1453940000000000    0.4018229999999999    0.4053350000000001 O
   0.1453230000000000    0.6053320000000000    0.2017980000000001 O
   0.6453290000000002    0.1053259999999999    0.7018050000000000 O
   0.8762950000000002    0.3990619999999999    0.8095450000000000 O
   0.3763000000000000    0.8990659999999999    0.3095520000000000 O
   0.3762340000000000    0.5095210000000000    0.6990530000000000 O
   0.8762169999999999    0.0095169999999999    0.1990400000000000 O
   0.6236979999999999    0.6904459999999999    0.1009330000000001 O
   0.1237060000000000    0.1904550000000000    0.6009380000000000 O
   0.1237850000000000    0.8009599999999999    0.9904830000000000 O
   0.6237680000000000    0.3009470000000000    0.4904790000000000 O
