Na2 Cu4 O6
1.0
   3.7929868524255732    0.0000003370949309   -0.0000001319870906
   0.0000003480596294    3.9185778293314786   -0.0000011237788605
  -0.0000003509875774   -0.0000028945090660   10.0796307931126066
Na Cu O
2 4 6
direct
   0.0000002186298162    0.3167234062178303    0.0000000234147953 Na
   0.4999991726029881    0.6832763850053373    0.4999998512811807 Na
   0.0001700517081399    0.1501118452202956    0.3423322287439116 Cu
  -0.0001700739749025    0.1501113229090416    0.6576681207688390 Cu
   0.4998296519830400    0.8498881937916006    0.8423323074483366 Cu
   0.5001704553614789    0.8498888269507422    0.1576681596417143 Cu
  -0.0007731288960473    0.9201860283579492    0.8221744609326317 O
   0.0000004179458129    0.3846984978447888    0.5000002079492089 O
   0.0007728418731607    0.9201871483385806    0.1778256127250369 O
   0.5000002598751615    0.6153015342214935    0.0000003182663425 O
   0.5007722033837859    0.0798141166478687    0.3221744295912840 O
   0.4992271096123179    0.0798135614794550    0.6778258811000352 O
