Na4 V4 O12
1.0
  -3.1144299745761344    4.6647398325618177    5.4522441390254084
   3.1144285852623370   -4.6647356252092038    5.4522397506838249
   3.1144239191762177    4.6647315759560941   -5.4522405445123328
Na V O
4 4 12
direct
   0.7022344020689489    0.7499999596860197    0.4522343616121904 Na
   0.2977655496884998    0.7499999744901609    0.0477656262014140 Na
   0.2980286456093401    0.2500000280391773    0.5480286827616982 Na
   0.7019714252896490    0.2500000409697717    0.9519713274771782 Na
   0.1348010006614339    0.2188966215882431    0.9158538875644834 V
   0.3030425773055887    0.7189471927109767    0.5841460522505029 V
   0.6969575134889858    0.2811034509477142    0.4159045648029203 V
   0.8651989757888657    0.7810530248418386    0.0840958060316371 V
   0.1683978725591475    0.9183978779059376    0.7500001067587246 O
   0.1685679384080633    0.4185676446773971    0.2499998534321269 O
   0.6059868758588774    0.3508520432498697    0.2556017795105247 O
   0.2663930971069499    0.3716272549236679    0.8942361037859039 O
   0.0952502996978165    0.8503849777219936    0.2443982166163698 O
   0.4773910943850169    0.8721569897646385    0.6057638039108082 O
   0.5226090179591303    0.1283729012645202    0.3947660009299415 O
   0.9047497539735767    0.1491477746034883    0.7551345644492803 O
   0.7336069201511916    0.6278429554681410    0.1052341595444732 O
   0.3940132394867806    0.6496151136924094    0.7448653996006821 O
   0.8316021610062100    0.5816024092702765    0.7500000872806991 O
   0.8314320441714016    0.0814318809955002    0.2499997899782418 O
