Na3 Sm1 Ti2 Nb2 O12
1.0
   5.4905356927590576    0.0026803900914761    0.0003379464350966
   0.0282086526085998    5.5937939083022394   -0.0008282079075629
   0.0050987201308287    0.0146431195778487    7.8230568507645506
Na Sm Ti Nb O
3 1 2 2 12
direct
   0.5008148503572550    0.5142970856825961    0.7472296683336247 Na
  -0.0047457022011111   -0.0005120343521513    0.7511615174039818 Na
   0.5109065353941644    0.4582802241466834    0.2505905111852554 Na
   0.9911827028897844    0.9439096117722103    0.2505641594746996 Sm
   0.4903232488377289    0.9819247425915225    0.0096922269676030 Ti
   0.0112001371923238    0.4768580133623919    0.4938336914832304 Ti
   0.4973421194702496    0.9899855420499205    0.5139694203458096 Nb
   0.0052698990156814    0.4794742700197431    0.9857604186036754 Nb
   0.2032809604383367    0.8066018772171738    0.9800641453289202 O
   0.2907726274931354    0.3027375306113878    0.5347563142644898 O
   0.7985651748120901    0.2170038394274527    0.4552460466448761 O
   0.7152147484742944    0.7344804553663281    0.0494455604609382 O
   0.7971877102374105    0.2131843834355734    0.0454889066410766 O
   0.7183140084816904    0.7323033607158923    0.4503127380136145 O
   0.2008401834181094    0.8048905498363136    0.5225509257258862 O
   0.2946168531845226    0.2994827157420183    0.9605877356315612 O
   0.5630678255607168    0.9851351477804431    0.7537554882756897 O
   0.9268410016217787    0.5015097574372612    0.7460699243916207 O
   0.4138982074228775    0.0332240273014867    0.2464457030021746 O
   0.0727426587900338    0.5247286447862005    0.2528895927200350 O
