Na8 W4 O8 F16
1.0
   5.1381670000000002    0.0000000000000000    0.0000000000000000
   0.0000000000000000    5.5405949999999997    0.0000000000000000
   0.0000000000000000    0.0000000000000000   18.7134150000000012
Na W O F
8 4 8 16
direct
   0.0000000000000000    0.7500000000000000    0.7706420000000000 Na
   0.5000000000000000    0.2500000000000000    0.7293580000000000 Na
   0.0000000000000000    0.2500000000000000    0.2293580000000000 Na
   0.5000000000000000    0.7500000000000000    0.2706420000000000 Na
   0.0000000000000000    0.7500000000000000    0.4488110000000000 Na
   0.5000000000000000    0.2500000000000000    0.0511890000000000 Na
   0.0000000000000000    0.2500000000000000    0.5511890000000000 Na
   0.5000000000000000    0.7500000000000000    0.9488110000000000 Na
   0.0000000000000000    0.7500000000000000    0.1072710000000000 W
   0.5000000000000000    0.2500000000000000    0.3927290000000000 W
   0.0000000000000000    0.2500000000000000    0.8927290000000000 W
   0.5000000000000000    0.7500000000000000    0.6072710000000000 W
   0.7716680000000000    0.8846910000000000    0.0480730000000000 O
   0.2716680000000000    0.1153090000000000    0.4519270000000000 O
   0.7283320000000000    0.3846909999999999    0.4519270000000000 O
   0.2283320000000000    0.6153090000000000    0.0480730000000000 O
   0.2283320000000000    0.1153090000000000    0.9519269999999999 O
   0.7283320000000000    0.8846910000000000    0.5480730000000000 O
   0.2716680000000000    0.6153090000000000    0.5480730000000000 O
   0.7716680000000000    0.3846909999999999    0.9519269999999999 O
   0.7102820000000000    0.9593500000000000    0.3741380000000000 F
   0.2102820000000000    0.0406500000000000    0.1258620000000000 F
   0.7897180000000001    0.4593500000000000    0.1258620000000000 F
   0.2897180000000000    0.5406500000000000    0.3741380000000000 F
   0.2897180000000000    0.0406500000000000    0.6258620000000000 F
   0.7897180000000001    0.9593500000000000    0.8741380000000001 F
   0.2102820000000000    0.5406500000000000    0.8741380000000001 F
   0.7102820000000000    0.4593500000000000    0.6258620000000000 F
   0.8016470000000000    0.8942749999999999    0.1942340000000000 F
   0.3016470000000000    0.1057250000000000    0.3057660000000000 F
   0.6983530000000000    0.3942750000000000    0.3057660000000000 F
   0.1983530000000000    0.6057250000000000    0.1942340000000000 F
   0.1983530000000000    0.1057250000000000    0.8057660000000000 F
   0.6983530000000000    0.8942749999999999    0.6942340000000000 F
   0.3016470000000000    0.6057250000000000    0.6942340000000000 F
   0.8016470000000000    0.3942750000000000    0.8057660000000000 F
