Na8 Li8 Ti24 O56
1.0
   5.6680510000000002   -8.3150180000000002    0.0000000000000000
   5.6680510000000002    8.3150180000000002    0.0000000000000000
   0.0000000000000000    0.0000000000000000   11.5449300000000008
Na Li Ti O
8 8 24 56
direct
   0.3804030000000000    0.3804030000000000    0.1247860000000000 Na
   0.8810710000000002    0.8810710000000002    0.8705759999999999 Na
   0.6189290000000000    0.6189290000000000    0.3705760000000000 Na
   0.1195970000000000    0.1195970000000000    0.6247859999999998 Na
   0.6195970000000000    0.6195970000000000    0.8752140000000000 Na
   0.8804030000000002    0.8804030000000002    0.3752140000000000 Na
   0.1189290000000000    0.1189290000000000    0.1294240000000000 Na
   0.3810710000000000    0.3810710000000000    0.6294240000000000 Na
   0.5663280000000002    0.9334630000000002    0.8748410000000000 Li
   0.4334630000000000    0.0663280000000001    0.6251580000000000 Li
   0.5665370000000000    0.9336719999999999    0.3748420000000000 Li
   0.9336719999999999    0.5665370000000000    0.3748420000000000 Li
   0.4336720000000000    0.0665370000000000    0.1251580000000000 Li
   0.0665370000000001    0.4336720000000001    0.1251580000000000 Li
   0.0663280000000000    0.4334630000000000    0.6251580000000000 Li
   0.9334630000000002    0.5663280000000002    0.8748420000000000 Li
   0.2506520000000000    0.7493480000000000    0.0000000000000000 Ti
   0.7680880000000000    0.9861170000000000    0.6258099999999999 Ti
   0.7319120000000000    0.5138830000000000    0.1258100000000000 Ti
   0.4858410000000000    0.2681030000000000    0.3762330000000000 Ti
   0.2681030000000000    0.4858410000000000    0.3762330000000000 Ti
   0.2493480000000000    0.7506520000000000    0.5000000000000000 Ti
   0.7681030000000000    0.9858410000000000    0.1237670000000000 Ti
   0.7506520000000000    0.2493480000000000    0.5000000000000000 Ti
   0.7318970000000000    0.5141590000000000    0.6237670000000000 Ti
   0.5138830000000000    0.7319120000000000    0.1258100000000000 Ti
   0.2501010000000000    0.7501010000000000    0.7500000000000000 Ti
   0.7501010000000000    0.2501010000000000    0.7500000000000000 Ti
   0.4861170000000001    0.2680880000000000    0.8741899999999999 Ti
   0.7498990000000001    0.2498990000000001    0.2500000000000000 Ti
   0.0138830000000000    0.2319120000000000    0.3741900000000000 Ti
   0.2498990000000000    0.7498990000000000    0.2500000000000000 Ti
   0.2680880000000000    0.4861170000000001    0.8741899999999999 Ti
   0.7493480000000000    0.2506520000000000    0.0000000000000000 Ti
   0.9858410000000001    0.7681030000000001    0.1237670000000000 Ti
   0.2318970000000000    0.0141590000000000    0.8762329999999999 Ti
   0.5141590000000000    0.7318970000000000    0.6237670000000000 Ti
   0.0141590000000000    0.2318970000000000    0.8762329999999999 Ti
   0.2319120000000000    0.0138830000000000    0.3741900000000000 Ti
   0.9861170000000001    0.7680880000000001    0.6258099999999999 Ti
   0.3799340000000000    0.8518500000000000    0.1250240000000000 O
   0.3677280000000001    0.6309770000000001    0.7495619999999998 O
   0.3566170000000001    0.1440890000000000    0.2634369999999999 O
   0.6205250000000001    0.1480890000000001    0.3749920000000000 O
   0.6481500000000001    0.1200660000000000    0.6250239999999999 O
   0.6319310000000000    0.3680690000000000    0.5000000000000000 O
   0.8794750000000001    0.3519110000000000    0.8749919999999999 O
   0.3794750000000001    0.8519110000000000    0.6250080000000000 O
   0.1322720000000000    0.8690230000000001    0.2495620000000000 O
   0.1434720000000000    0.3566510000000000    0.9867519999999999 O
   0.1433490000000000    0.3565280000000000    0.4867520000000000 O
   0.0845010000000000    0.0845010000000000    0.3742720000000000 O
   0.8566170000000001    0.6440890000000000    0.2365630000000000 O
   0.3559110000000000    0.1433830000000000    0.7634370000000000 O
   0.6309770000000000    0.3677279999999999    0.7495619999999998 O
   0.1481500000000000    0.6200660000000001    0.8749759999999999 O
   0.4154990000000000    0.4154990000000000    0.8742719999999999 O
   0.8690230000000000    0.1322720000000001    0.2495620000000000 O
   0.1480890000000001    0.6205250000000001    0.3749920000000000 O
   0.8566510000000002    0.6434720000000002    0.5132480000000000 O
   0.6322719999999999    0.3690230000000000    0.2504380000000000 O
   0.3680690000000000    0.6319310000000000    0.5000000000000000 O
   0.9154990000000001    0.9154990000000001    0.6257280000000000 O
   0.1314410000000000    0.8685590000000000    0.5000000000000000 O
   0.3690230000000000    0.6322719999999999    0.2504380000000000 O
   0.1319310000000000    0.8680690000000000    0.0000000000000000 O
   0.6433830000000000    0.8559110000000001    0.7365630000000000 O
   0.3685590000000000    0.6314410000000000    0.0000000000000000 O
   0.8565280000000000    0.6433489999999999    0.0132480000000000 O
   0.0845020000000000    0.0845020000000000    0.8756949999999999 O
   0.8518500000000000    0.3799340000000000    0.1250240000000000 O
   0.1433830000000000    0.3559110000000000    0.7634370000000000 O
   0.8799340000000000    0.3518500000000000    0.3749760000000000 O
   0.1200660000000000    0.6481500000000001    0.6250239999999999 O
   0.3518500000000000    0.8799340000000000    0.3749760000000000 O
   0.1205250000000000    0.6480890000000001    0.1250080000000000 O
   0.3565280000000001    0.1433490000000000    0.4867520000000000 O
   0.4154980000000000    0.4154980000000000    0.3756950000000000 O
   0.8685589999999999    0.1314410000000000    0.5000000000000000 O
   0.8677280000000002    0.1309770000000001    0.7504380000000000 O
   0.5845010000000000    0.5845010000000000    0.1257280000000000 O
   0.1440890000000000    0.3566170000000001    0.2634369999999999 O
   0.6433489999999999    0.8565280000000000    0.0132480000000000 O
   0.6440890000000000    0.8566170000000001    0.2365630000000000 O
   0.3566510000000000    0.1434720000000000    0.9867519999999999 O
   0.8519110000000000    0.3794750000000001    0.6250080000000000 O
   0.5845020000000000    0.5845020000000000    0.6243050000000000 O
   0.6314410000000000    0.3685590000000000    0.0000000000000000 O
   0.8680690000000000    0.1319310000000000    0.0000000000000000 O
   0.8559110000000001    0.6433830000000000    0.7365630000000000 O
   0.6480890000000001    0.1205250000000000    0.1250080000000000 O
   0.1309770000000001    0.8677280000000002    0.7504380000000000 O
   0.3519110000000000    0.8794750000000001    0.8749919999999999 O
   0.9154980000000001    0.9154980000000001    0.1243050000000000 O
   0.6434720000000002    0.8566510000000002    0.5132480000000000 O
   0.6200660000000000    0.1481500000000001    0.8749759999999999 O
