Na4 Co2 H16 C4 O20
1.0
   3.6162439981029646    4.3264385867605739   -0.0001885696352257
  -3.6162451582227151    4.3264395563249920   -0.0001877400337483
  -0.0000018899742589    1.8630446287478286   14.2948617116465151
Na Co H C O
4 2 16 4 20
direct
   0.4053240612099424    0.7538151274174859    0.5615754335330118 Na
   0.2461848844147065    0.5946759523498337    0.9384245614719252 Na
   0.5947237066881219    0.2459258713772257    0.4383355088546252 Na
   0.7540741518993214    0.4052761669927551    0.0616645206029484 Na
   0.0377686435599039    0.9622313321659242    0.7499999885553689 Co
   0.9628139392343121    0.0371859810196094    0.2500000406581013 Co
   0.5354877377549476    0.2120120072625499    0.6312992993636991 H
   0.7879878534907701    0.4645122145563791    0.8687007259848787 H
   0.4646993306222152    0.7876031513852620    0.3687392904809520 H
   0.2123968782653407    0.5353007341863583    0.1312607244114977 H
   0.7490479658344198    0.3541062812306202    0.6239231575861582 H
   0.6458937023512737    0.2509520120941220    0.8760768424414656 H
   0.2505324806853478    0.6462156708488985    0.3761665434292338 H
   0.3537843033148222    0.7494675835739874    0.1238334621213712 H
   0.8640898650744584    0.7606276979732081    0.4399904971758007 H
   0.2393723270209155    0.1359100881939424    0.0600095574954642 H
   0.1358524282708090    0.2394349042941090    0.5599810725890358 H
   0.7605650839913121    0.8641475791369874    0.9400188784276635 H
   0.8875260199778168    0.7962783912078204    0.5466770310634432 H
   0.2037215054115470    0.1124741191425131    0.9533230297123704 H
   0.1127487257265321    0.2039018464009430    0.4532224903417458 H
   0.7960981886030478    0.8872510049477493    0.0467775071966376 H
   0.4821989840363610    0.9666630734309591    0.7863634685384663 C
   0.0333370279233946    0.5178008531298711    0.7136367612442518 C
   0.5179997652842667    0.0335281058486529    0.2134913740169146 C
   0.9664719588769900    0.4820004186242700    0.2865086016883366 C
   0.2903021205804866    0.9603821434296389    0.8457774704297489 O
   0.0396178655007007    0.7096978449375260    0.6542225433520419 O
   0.7098658214838860    0.0394015382938279    0.1541102509508487 O
   0.9605983867603215    0.2901341422936142    0.3458897919549094 O
   0.0465262787848260    0.5433258371662864    0.8002679765582048 O
   0.4566741827184797    0.9534736280734156    0.6997319941561155 O
   0.9534117387315251    0.4565464772969915    0.1998569082777928 O
   0.5434535206693021    0.0465883662638008    0.3001430833671475 O
   0.6862357046532929    0.9891809313053986    0.8175133479881369 O
   0.0108190666303771    0.3137643873792664    0.6824866738251435 O
   0.3137889578036613    0.0111706827123044    0.1823153721791238 O
   0.9888292086324489    0.6862110753077708    0.3176846479139078 O
   0.5958261775695420    0.3525012167214962    0.5961228645917692 O
   0.6474988747503558    0.4041737532533803    0.9038771160410876 O
   0.4040237318497767    0.6472707594419489    0.4038715530133017 O
   0.3527292347462055    0.5959760923539132    0.0961284603587212 O
   0.2164389117724241    0.1553584819816963    0.5055802267356353 O
   0.8446415451738085    0.7835610489310317    0.9944197937409236 O
   0.7835880639571929    0.8446942723267770    0.4944213544364781 O
   0.1553057979305460    0.2164118255237252    0.0055785502006572 O
