Na8 Mn4 P8 O28
1.0
   5.3652059999999997    0.0073670000000000   -0.4937360000000000
   3.2772619999999999    5.9182750000000004    6.7952690000000002
  -1.1903809999999999  -11.8648480000000003    5.0047020000000000
Na Mn P O
8 4 8 28
direct
   0.4127209999999999    0.7301480000000000    0.7939929999999998 Na
   0.9127340000000003    0.7301490000000002    0.2939820000000000 Na
   0.5872939999999999    0.2698450000000000    0.2060230000000000 Na
   0.0872789999999999    0.2698540000000000    0.7059990000000000 Na
   0.7819940000000001    0.9660240000000001    0.8744750000000000 Na
   0.2819650000000000    0.9660180000000002    0.3744500000000000 Na
   0.2180150000000000    0.0339920000000000    0.1255560000000000 Na
   0.7180449999999999    0.0339850000000000    0.6255300000000000 Na
   0.1067950000000000    0.3633710000000000    0.3815560000000000 Mn
   0.3930540000000002    0.6365730000000001    0.1184440000000000 Mn
   0.6071949999999999    0.3630950000000000    0.8813029999999999 Mn
   0.8927810000000000    0.6369089999999999    0.6187080000000000 Mn
   0.5190860000000000    0.6112220000000000    0.3864460000000000 P
   0.0190679999999999    0.6112300000000001    0.8864740000000000 P
   0.4809350000000001    0.3887760000000000    0.6135250000000000 P
   0.9809150000000001    0.3887700000000000    0.1135500000000000 P
   0.3006860000000000    0.8653500000000000    0.5974349999999999 P
   0.8007080000000001    0.8653470000000001    0.0974720000000000 P
   0.6992800000000001    0.1346550000000000    0.4025310000000000 P
   0.1993289999999999    0.1346530000000001    0.9025640000000000 P
   0.5611090000000002    0.8320259999999999    0.6612319999999999 O
   0.0612150000000001    0.8319550000000000    0.1612110000000000 O
   0.4387909999999999    0.1680500000000000    0.3387890000000000 O
   0.9388909999999999    0.1679850000000000    0.8387709999999999 O
   0.9804359999999999    0.3305800000000000    0.2112020000000000 O
   0.4803930000000000    0.3305620000000000    0.7111640000000000 O
   0.0196129999999998    0.6694430000000001    0.7888330000000000 O
   0.5195799999999999    0.6694210000000000    0.2887960000000000 O
   0.3382950000000000    0.7597020000000000    0.4687779999999999 O
   0.8383049999999999    0.7596989999999999    0.9687749999999999 O
   0.6617140000000000    0.2403060000000000    0.5312240000000000 O
   0.1617260000000000    0.2403030000000000    0.0312210000000000 O
   0.3905859999999999    0.4810420000000001    0.3597440000000000 O
   0.8905880000000003    0.4810470000000000    0.8597269999999999 O
   0.6094109999999998    0.5189560000000001    0.6402689999999999 O
   0.1094170000000001    0.5189510000000001    0.1402560000000000 O
   0.2061180000000000    0.4206390000000000    0.5591959999999999 O
   0.7062039999999999    0.4205620000000000    0.0591360000000000 O
   0.7938099999999999    0.5794400000000000    0.4408599999999999 O
   0.2938789999999999    0.5793600000000000    0.9407979999999999 O
   0.2706600000000000    0.9736210000000000    0.9113900000000000 O
   0.7706910000000002    0.9736400000000001    0.4113970000000001 O
   0.7293450000000000    0.0263630000000000    0.0886050000000000 O
   0.2293410000000000    0.0263850000000000    0.5886090000000000 O
   0.0868669999999999    0.8207240000000001    0.6369030000000000 O
   0.5868740000000000    0.8206920000000000    0.1368860000000001 O
   0.9131250000000001    0.1793020000000000    0.3631130000000000 O
   0.4131350000000000    0.1792789999999999    0.8630960000000000 O
