Na2 Mo12 Cl26
1.0
   9.1801700000000004    0.0000000000000000    0.0000000000000000
  -3.8576380000000001    8.4399090000000001    0.0000000000000000
  -2.9236700000000000   -3.2972679999999999   13.5643349999999998
Na Mo Cl
2 12 26
direct
   0.4974239999999999    0.7548130000000000    0.7277930000000000 Na
   0.5025760000000000    0.2451870000000000    0.2722070000000000 Na
   0.9479940000000001    0.0133400000000000    0.6195060000000001 Mo
   0.0520060000000000    0.9866600000000000    0.3804940000000000 Mo
   0.2004030000000000    0.0036680000000000    0.5632400000000000 Mo
   0.7995969999999999    0.9963319999999999    0.4367600000000000 Mo
   0.1047600000000000    0.2261520000000000    0.5252210000000000 Mo
   0.8952400000000000    0.7738479999999999    0.4747790000000001 Mo
   0.1342530000000000    0.4560520000000000    0.0966310000000000 Mo
   0.8657470000000000    0.5439480000000000    0.9033690000000001 Mo
   0.1850830000000001    0.6180290000000002    0.9583770000000001 Mo
   0.8149170000000000    0.3819710000000000    0.0416230000000000 Mo
   0.0435490000000000    0.6886880000000000    0.0880580000000000 Mo
   0.9564510000000001    0.3113120000000000    0.9119420000000000 Mo
   0.1427219999999999    0.7820399999999998    0.4249670000000000 Cl
   0.8572780000000000    0.2179600000000000    0.5750330000000000 Cl
   0.7605340000000000    0.7712009999999999    0.3031600000000000 Cl
   0.2394660000000000    0.2287990000000001    0.6968400000000001 Cl
   0.3375690000000000    0.2069460000000000    0.4702480000000000 Cl
   0.6624310000000000    0.7930540000000000    0.5297520000000001 Cl
   0.9598240000000001    0.1976390000000000    0.3506250000000001 Cl
   0.0401760000000000    0.8023610000000000    0.6493750000000000 Cl
   0.3420739999999999    0.7486730000000000    0.1331040000000000 Cl
   0.6579259999999999    0.2513270000000000    0.8668960000000001 Cl
   0.9903300000000000    0.5238060000000000    0.2128570000000000 Cl
   0.0096700000000000    0.4761940000000001    0.7871430000000001 Cl
   0.2598360000000000    0.3894220000000000    0.9687090000000002 Cl
   0.7401639999999998    0.6105780000000000    0.0312910000000000 Cl
   0.9107769999999997    0.1673430000000000    0.0471310000000000 Cl
   0.0892230000000001    0.8326570000000000    0.9528690000000001 Cl
   0.4613170000000000    0.0025020000000001    0.6434790000000001 Cl
   0.5386830000000000    0.9974980000000001    0.3565210000000000 Cl
   0.2437880000000000    0.5239010000000000    0.5634350000000000 Cl
   0.7562120000000000    0.4760990000000000    0.4365650000000000 Cl
   0.3132099999999999    0.4111230000000000    0.2301280000000000 Cl
   0.6867900000000000    0.5888770000000000    0.7698720000000001 Cl
   0.4300280000000000    0.7756160000000000    0.9054830000000000 Cl
   0.5699720000000000    0.2243840000000000    0.0945170000000000 Cl
   0.1142310000000000    0.9557099999999998    0.2114290000000000 Cl
   0.8857690000000001    0.0442900000000001    0.7885710000000001 Cl
