Na2 Mn4 Si6 O18
1.0
  -0.0638660000000000   -0.1179200000000000   -6.5901310000000004
   1.3295999999999999   -7.0940450000000004   -0.0435160000000000
  -7.4878039999999997   -0.1664660000000000    0.4659880000000000
Na Mn Si O
2 4 6 18
direct
   0.3766240000000000    0.2776830000000001    0.5831150000000000 Na
   0.6234520000000000    0.7222259999999999    0.4170780000000000 Na
   0.1460890000000000    0.5860460000000000    0.8579010000000001 Mn
   0.8537779999999999    0.4135110000000000    0.1417820000000000 Mn
   0.1335540000000000    0.0682680000000000    0.8412140000000001 Mn
   0.8665600000000000    0.9313550000000000    0.1581580000000000 Mn
   0.3462350000000001    0.4052209999999999    0.2147730000000000 Si
   0.6536839999999999    0.5947570000000000    0.7850830000000001 Si
   0.3550780000000000    0.9689419999999999    0.2118620000000000 Si
   0.6450590000000000    0.0310210000000000    0.7883380000000002 Si
   0.1443550000000000    0.7368849999999999    0.4562600000000001 Si
   0.8556859999999998    0.2633670000000000    0.5436000000000001 Si
   0.1109170000000000    0.7773769999999999    0.6734950000000000 O
   0.8888340000000001    0.2224430000000000    0.3263190000000000 O
   0.9405210000000001    0.7330909999999999    0.3221900000000000 O
   0.0595100000000000    0.2681290000000000    0.6776219999999999 O
   0.5678370000000000    0.4726210000000000    0.1808560000000000 O
   0.4320470000000001    0.5275030000000001    0.8192600000000001 O
   0.5738240000000000    0.8842209999999999    0.1570380000000000 O
   0.4265590000000000    0.1159600000000000    0.8430330000000001 O
   0.1552750000000000    0.4160400000000000    0.0644120000000000 O
   0.8446100000000001    0.5839450000000000    0.9355040000000001 O
   0.1634810000000000    0.9114540000000000    0.0602710000000000 O
   0.8361409999999999    0.0878960000000000    0.9407450000000002 O
   0.2721510000000000    0.5355499999999999    0.4074360000000001 O
   0.7273810000000001    0.4644970000000000    0.5923100000000001 O
   0.2967170000000000    0.8989039999999999    0.4040320000000000 O
   0.7039690000000000    0.1011280000000000    0.5963530000000000 O
   0.3570409999999999    0.1962210000000000    0.2718310000000000 O
   0.6430320000000000    0.8037390000000000    0.7281310000000000 O
