Na2 Sb2 W2 O12
1.0
  -3.6354790000000001    3.7154929999999999    5.2022839999999997
   3.6354790000000001   -3.7154929999999999    5.2022839999999997
   3.6354790000000001    3.7154929999999999   -5.2022839999999997
Na Sb W O
2 2 2 12
direct
  -0.0000000000000000    0.5000000000000000    0.5000000000000000 Na
   0.5000000000000000    0.5000000000000000    0.0000000000000000 Na
   0.0000000000000000    0.5000000000000000    0.0000000000000000 Sb
  -0.0000000000000000   -0.0000000000000000    0.5000000000000000 Sb
   0.5000000000000000    0.0000000000000000    0.5000000000000000 W
   0.0000000000000000    0.0000000000000000    0.0000000000000000 W
   0.3206670000000000    0.0698170000000000    0.6354700000000000 O
   0.3206670000000000    0.6851969999999999    0.2508500000000000 O
   0.3043750000000000    0.0543750000000000    0.2500000000000000 O
   0.9343469999999999    0.6851969999999998    0.8645299999999999 O
   0.9343470000000000    0.0698170000000000    0.2491500000000000 O
   0.9193990000000001    0.6693990000000001    0.2500000000000001 O
   0.6793330000000001    0.9301830000000001    0.3645300000000001 O
   0.6793330000000000    0.3148030000000000    0.7491500000000000 O
   0.6956250000000000    0.9456250000000002    0.7500000000000000 O
   0.0656530000000000    0.3148030000000000    0.1354700000000000 O
   0.0656530000000000    0.9301830000000001    0.7508500000000000 O
   0.0806010000000000    0.3306010000000000    0.7500000000000000 O
