Na8 Cu12 O10
1.0
   3.9061034459409885   -6.7655650986586569    0.0000009555145163
   3.9061025244447447    6.7655645666326389   -0.0000021644122655
  -0.0000012462505916   -0.0000018569443594    8.0548271181238835
Na Cu O
8 12 10
direct
   0.1209654939820398    0.4024907952772439    0.2500373711817535 Na
   0.2815247360348095    0.8790270293960656    0.2500367992170079 Na
  -0.0000023673371542   -0.0000023666895591    0.5000000057524988 Na
  -0.0000000037730263   -0.0000000043518773    0.0000000002177488 Na
   0.5975046449765584    0.7184740128046708    0.2500309164898944 Na
   0.7184740504316169    0.5975047163309387    0.7499690851665459 Na
   0.4024907443728381    0.1209653849113743    0.7499626253781120 Na
   0.8790270008892049    0.2815247397036960    0.7499631898258136 Na
   0.1696299148819670    0.7131365163283099    0.9095096583019309 Cu
   0.1698788530789335    0.7132745046384006    0.5905978085983929 Cu
   0.2868614220284725    0.4564881381317205    0.9095073538286076 Cu
   0.2867239709707539    0.4566044846354114    0.5906007471448889 Cu
   0.5434038488302665    0.8301266190961071    0.5905935714506915 Cu
   0.5435018514696476    0.8303720141047464    0.9094978553330604 Cu
   0.4564880688583891    0.2868613652192812    0.0904926560966262 Cu
   0.4566044330787383    0.2867239505983705    0.4093992904398939 Cu
   0.8303719875957797    0.5435018300561085    0.0905022084300296 Cu
   0.8301266296149569    0.5434038754131183    0.4094064440781912 Cu
   0.7131365526134352    0.1696299608990186    0.0904904131633678 Cu
   0.7132744788704258    0.1698788631529443    0.4094022532134878 Cu
   0.0585428509495477    0.7965910299066590    0.7499018784464504 O
   0.3333256713220414    0.6666661014778553    0.4439823549344473 O
   0.3333322685387870    0.6666677600111142    0.0562458719392768 O
   0.2033959326950815    0.2619410971583793    0.7498989498072279 O
   0.2619410795610543    0.2033958737563776    0.2501010102612840 O
   0.7380596168489070    0.9414611276534739    0.7499002546557484 O
   0.6666661814279863    0.3333256985164686    0.5560176707646077 O
   0.6666677234332101    0.3333322593557345    0.9437542266718447 O
   0.9414611214904789    0.7380595909426151    0.2500997231252138 O
   0.7965910039160166    0.0585428315377639    0.2500981665964169 O
