Na24 Zr6 Ti6 Si18 O72
1.0
   9.1394116713581557   -0.0000000294769249   -0.0000020317761422
  -4.5697058662082801    7.9149610538304485   -0.0000030965645015
  -0.0000049543282411   -0.0000115799041412   22.2807544931114414
Na Zr Ti Si O
24 6 6 18 72
direct
   0.6342589974050952    0.0003254365851609    0.2480880714192703 Na
   0.3660661372228035    0.3657350743731564    0.2480866467574084 Na
   0.9996742364416201    0.6339359284394832    0.2480835250419210 Na
   0.6262273508801139    0.6314298772406296    0.7563700571932813 Na
   0.0051999850950595    0.3737816745649548    0.7563819276848350 Na
   0.3685902802543078    0.9947961137923997    0.7563763494137337 Na
   0.2996588177231837    0.3334819244731714    0.5839457703608885 Na
   0.0338169139239828    0.7003360846025403    0.5839525178653575 Na
   0.6665210629797157    0.9661833740918546    0.5839446800971355 Na
   0.2934626150124359    0.9551624509230155    0.0810102108697971 Na
   0.6616967925489121    0.7065307620804457    0.0810216342099578 Na
   0.0448503465233524    0.3383027805768895    0.0810188033037628 Na
   0.9585281818152029    0.6661064361414026    0.9174610685367087 Na
   0.7075689936318244    0.0414610629350350    0.9174681034768430 Na
   0.3338958710732612    0.2924340422140699    0.9174554427074687 Na
   0.9648588599485487    0.2971124365597784    0.4127251223585033 Na
   0.3322495786505014    0.0351359524591187    0.4127409881765012 Na
   0.7028951097100632    0.6677510601207216    0.4127324213470987 Na
   0.0000003191171744   -0.0000006996239399    0.4994808200402996 Na
   0.0000008288560883   -0.0000004369307595    0.9976168867047184 Na
   0.6666636876839179    0.3333327081124867    0.8379495064281055 Na
   0.6666622824359310    0.3333336016886206    0.3272736108496292 Na
   0.3333335659053083    0.6666668554176508    0.1658691370432425 Na
   0.3333424394886080    0.6666716293925178    0.6717953554969305 Na
   0.0000071350175324    0.0000048266148791    0.3498565465949027 Zr
  -0.0000011351201535   -0.0000039723625000    0.6491516548451729 Zr
   0.0000019776043204   -0.0000040107766810    0.1438756847372245 Zr
   0.6666676013483162    0.3333323715534202    0.6914494925461970 Zr
   0.6666708260632028    0.3333340915613594    0.4770946384490677 Zr
   0.3333360835374687    0.6666714072680937    0.5211886963336529 Zr
  -0.0000030377198978    0.0000033405426686    0.8560362808944956 Ti
   0.6666645608249019    0.3333332956989900    0.1829167941866772 Ti
   0.6666643898259950    0.3333325704064041    0.9792276894062952 Ti
   0.3333375776261677    0.6666706750041546    0.0193789985453350 Ti
   0.3333288644333964    0.6666599919585180    0.3116795463341728 Ti
   0.3333367369516927    0.6666621783433411    0.8177625325817744 Ti
   0.3026893718835711    0.0000253072749264    0.2470779057469968 Si
   0.6973424113439994    0.6973153933890630    0.2470795514935438 Si
   0.9999756803055954    0.3026581904601884    0.2470778272356441 Si
   0.2902654006905249    0.2955583665823069    0.7555245029912926 Si
   0.0052949558292163    0.7097353958366049    0.7555256929441342 Si
   0.7044385921855142    0.9947089100312887    0.7555257279942099 Si
   0.9607491102966215    0.3324219249430379    0.5844672660155660 Si
   0.3716764418975946    0.0392537269983149    0.5844659421522701 Si
   0.6675797873323615    0.6283265006956245    0.5844673184957305 Si
   0.9559260130578685    0.6186395600441541    0.0804656214996463 Si
   0.6627187709707562    0.0440753867409503    0.0804647417535717 Si
   0.3813567677895746    0.3372833817628173    0.0804661213127422 Si
   0.6241739962362093    0.6673431681936817    0.9184011353331173 Si
   0.0431725728143799    0.3758308504371994    0.9184029064262261 Si
   0.3326567845359201    0.9568268959975704    0.9183996425090041 Si
   0.6241895746846684    0.9566568760411227    0.4140020174790789 Si
   0.3324671089712854    0.3758098405242552    0.4140036711422262 Si
   0.0433407877367832    0.6675312594242744    0.4139992976223896 Si
   0.2100461513992620    0.0261854528440103    0.3061459727846403 O
   0.8161456404391185    0.7899646028596483    0.3061469494069159 O
   0.9738222180967141    0.1838667864480507    0.3061488617613524 O
   0.1852587557186812    0.1748131556136904    0.8133132324528832 O
   0.9895491314159793    0.8147478745300399    0.8133106441093181 O
   0.8251813488934512    0.0104541678512927    0.8133161328244080 O
   0.7923886577913452    0.9759741868085058    0.6940013423460019 O
   0.1835831921279542    0.2076177712611662    0.6939989475771335 O
   0.0240356044388189    0.8164120828157689    0.6939980572560879 O
   0.7897732942965782    0.8185883984220591    0.1883576550667047 O
   0.0288216312813149    0.2102181756738541    0.1883597906300449 O
   0.1814077416260126    0.9711760578728530    0.1883577329670773 O
   0.8645912579381545    0.3448728431383716    0.6447553238870408 O
   0.4802827766767745    0.1354144466723153    0.6447541365645008 O
   0.6551390330825427    0.5197311777994935    0.6447575112692152 O
   0.8566810981207380    0.5064816102995875    0.1401651200869082 O
   0.6497973577251844    0.1433250720783954    0.1401614860523505 O
   0.4935121874362859    0.3501997878175038    0.1401670094973311 O
   0.4806323632398899    0.3224553520892541    0.0209741758239745 O
   0.8418177153583252    0.5193594483508862    0.0209745417876157 O
   0.6775458039994192    0.1581750843619989    0.0209710794530309 O
   0.4676812476736704    0.1469655485933516    0.5238999536484048 O
   0.6792926089402870    0.5323157927880685    0.5239029238319558 O
   0.8530258520883561    0.3207095667398557    0.5239028608517697 O
   0.5252639870695244    0.6865911661189711    0.9776388736643439 O
   0.1613343654785636    0.4747440826881069    0.9776390923167405 O
   0.3134140807180026    0.8386713592991941    0.9776382571450187 O
   0.5350363253087808    0.8548946779018523    0.4760310700216476 O
   0.3198670027817855    0.4649729813338510    0.4760304174576823 O
   0.1451093164903072    0.6801276910330241    0.4760252117699715 O
   0.1505138466445305    0.6615960854135112    0.3555658680797583 O
   0.5110673409759929    0.8494653679106668    0.3555735355342555 O
   0.3383950611246447    0.4889223574771577    0.3555721658001629 O
   0.1425426062887925    0.4934964402990153    0.8595239717198289 O
   0.3509631579181148    0.8574575800762988    0.8595233731219856 O
   0.5065073785484604    0.6490389464262539    0.8595221227734563 O
   0.0224535163735588    0.8351974673583562    0.4135456084289537 O
   0.8127456964900454    0.9775506834276416    0.4135418199196174 O
   0.1648009859282330    0.1872585847250912    0.4135464071314716 O
   0.0244778388025296    0.1873396657240533    0.9161798657624877 O
   0.1628619568911367    0.9755234402590129    0.9161750525849190 O
   0.8126693035264823    0.8371368424669844    0.9161773682771619 O
   0.9762902674415157    0.1620971158202621    0.5844026037991025 O
   0.1858128231494145    0.0237184010714694    0.5844022977040548 O
   0.8379047609749259    0.8141932746615190    0.5844000857766192 O
   0.9718159959297417    0.8059629051613235    0.0807825340457737 O
   0.8341436924442872    0.0281741738903481    0.0807867055240681 O
   0.1940276999156297    0.1658552177420552    0.0807833319163244 O
   0.6901175171171043    0.1664780509052441    0.7556720348733723 O
   0.4763503711828320    0.3098730071714177    0.7556706046702675 O
   0.8335173284679801    0.5236551964736459    0.7556741836140670 O
   0.6827084179362800    0.5118518060140471    0.2424980078845279 O
   0.8291473667262492    0.3172919548934909    0.2424928062475613 O
   0.4881553975405299    0.1708510573739961    0.2424948420011706 O
   0.6428406593947663    0.4974389471274104    0.9195483132950975 O
   0.8546045377068775    0.3571663207716517    0.9195486123962082 O
   0.5025610541867715    0.1453959038043495    0.9195458772664961 O
   0.6389473240654417    0.1428205571396433    0.4122764648010526 O
   0.5038689791791613    0.3610436721609733    0.4122789697570586 O
   0.8571683650274404    0.4961300115064278    0.4122761826098321 O
   0.3609463937708746    0.5061870399720995    0.0796315097398925 O
   0.1452396020988309    0.6390542657536293    0.0796285586604462 O
   0.4938125822124879    0.8547641687693398    0.0796307610734512 O
   0.3530939769272447    0.8520864655487810    0.5852330820588385 O
   0.4989913301133479    0.6469006471110055    0.5852312679927394 O
   0.1479171085674862    0.5010070734379232    0.5852311644611952 O
   0.3223049315138746    0.8320079798076231    0.2520477839853064 O
   0.5097124019579859    0.6777063961010467    0.2520499804205180 O
   0.1679992695241104    0.4902883545581426    0.2520446625378070 O
   0.3112801302290668    0.4842136463606488    0.7582586383018295 O
   0.1729289316478812    0.6887135393825922    0.7582623267928886 O
   0.5157827265273111    0.8270668470527057    0.7582567719368755 O
