Na12 Cu4 O8
1.0
   9.5125918875858986    0.0000074195877597    0.0000001086731517
   0.0000074195894303    9.5125801068295122    0.0000000749964334
   0.0000000524959873    0.0000000362292793    4.5964427302573965
Na Cu O
12 4 8
direct
   0.6547914998538832    0.9821994497217699    0.5003184353660475 Na
   0.5177951007358832    0.1547856994507844    0.0003153746957073 Na
   0.8481611568647776    0.1518219961163869   -0.0000063205478715 Na
   0.3481610794544719    0.3481780905815977    0.5000064204248282 Na
   0.0177951196082572    0.3452142734536510    0.4996846956427435 Na
   0.1547915142955882    0.5178006170206940   -0.0003184204149714 Na
   0.8452084806516769    0.4821993899417863   -0.0003183557339549 Na
   0.9822048604764511    0.6547856737019041    0.4996847415501303 Na
   0.6518388795928244    0.6518219734734297    0.5000063908719485 Na
   0.1518388033476325    0.8481779129679176   -0.0000062887367326 Na
   0.4822048316732911    0.8452143273013101    0.0003153422383149 Na
   0.3452084306463591    0.0178006372070533    0.5003184847950609 Na
   0.1693694833633897    0.1693713755822154   -0.0000017219769972 Cu
   0.6693694417657196    0.3306286561421301    0.5000014925090448 Cu
   0.3306305967960306    0.6693712764014595    0.5000017389482089 Cu
   0.8306304932348999    0.8306286474629123   -0.0000016090218973 Cu
   0.3014459424007566    0.0318471859302890   -0.0002134191051395 O
   0.5318461081836093    0.1985488746437444    0.4997889371623148 O
   0.0318459384071706    0.3014513254385274    0.0002111724919795 O
   0.8014458943092823    0.4681526996855281    0.5002137835920044 O
   0.1985541006866659    0.5318473546154943    0.5002133307794489 O
   0.9681540025584050    0.6985486680202014    0.0002113123246400 O
   0.4681539548704121    0.8014512080635351    0.4997890345494614 O
   0.6985539496542350    0.9681528216344614   -0.0002133159757661 O
