K2 Na6 W2 O10
1.0
   3.7873150000000000    4.5818580000000004    0.0000000000000000
  -3.7873150000000000    4.5818580000000004    0.0000000000000000
   0.0000000000000000    2.2497189999999998    8.9291269999999994
K Na W O
2 6 2 10
direct
   0.2511200000000000    0.7488800000000000    0.5000000000000000 K
   0.7488800000000000    0.2511200000000000    0.5000000000000000 K
   0.3519030000000000    0.8421710000000000    0.1128320000000000 Na
   0.1578290000000001    0.6480969999999999    0.8871680000000000 Na
   0.6480969999999999    0.1578289999999999    0.8871680000000000 Na
   0.8102580000000000    0.8102579999999999    0.2735880000000000 Na
   0.8421710000000000    0.3519030000000000    0.1128320000000000 Na
   0.1897420000000000    0.1897420000000000    0.7264119999999999 Na
   0.3087570000000000    0.3087570000000000    0.2580930000000000 W
   0.6912430000000001    0.6912430000000001    0.7419069999999999 W
   0.7462880000000000    0.7462879999999998    0.5338020000000000 O
   0.2537119999999999    0.2537119999999999    0.4661980000000000 O
   0.5553840000000000    0.1168340000000000    0.1546270000000000 O
   0.9009210000000001    0.9009210000000001    0.7508640000000000 O
   0.5207929999999998    0.5207929999999998    0.2581090000000000 O
   0.1168340000000000    0.5553840000000000    0.1546270000000000 O
   0.8831660000000000    0.4446159999999999    0.8453730000000000 O
   0.4792070000000000    0.4792070000000000    0.7418910000000000 O
   0.0990790000000000    0.0990790000000000    0.2491360000000000 O
   0.4446159999999999    0.8831660000000000    0.8453730000000000 O
