Na6 V24 O60
1.0
   8.3515414123504979   -0.0025941135064036    0.0001422154915470
  -2.8958640551371566  -10.2341378610521740   -0.0013885124299216
  -3.1649205074209550    0.8931318611410567  -14.2031943589103751
Na V O
6 24 60
direct
   0.9175157229799261    0.6531534069508976    0.4996304844480478 Na
   0.9080768662191518    0.6529309126333253    0.9748092527404149 Na
   0.8948767468020135    0.6594358667009955    0.2357669178314255 Na
   0.0826484796974037    0.3465426559806218    0.5002214356721232 Na
   0.1052941168781759    0.3404103361196653    0.7643432460117032 Na
   0.0920526644135606    0.3474640796214005    0.0251379640807885 Na
   0.3540981429257354    0.8995305840036545    0.5440192265652116 V
   0.3303434386420104    0.8941220543687066    0.7913412708571013 V
   0.3475506030386180    0.8997203026348374    0.0445433149058545 V
   0.3480452206201011    0.8912861300105414    0.2940535900222900 V
   0.7538503981758718    0.8840142106179322    0.0925678008351296 V
   0.7575043080568034    0.8887728075911293    0.5956439649306636 V
   0.7972922020712311    0.9105899587576314    0.3508756779132280 V
   0.7968998160301151    0.9134027236605370    0.8490082019723267 V
   0.4424324826536146    0.6044231700682510    0.8047723754084942 V
   0.4414251190056177    0.5974122001776501    0.0555885895604640 V
   0.4367434665087334    0.5941181411956750    0.5556160737359688 V
   0.4323327916284914    0.5916897582705328    0.3024727090047503 V
   0.5628387619040890    0.4058069592638982    0.4445326062122507 V
   0.5676325958004497    0.4081234127084646    0.6975158050435618 V
   0.5577795276399892    0.3955456783256425    0.1953728650836391 V
   0.5588169543658489    0.4027633164604874    0.9445167824267978 V
   0.2421906758654556    0.1111348016505465    0.4038246615693181 V
   0.2023048502676373    0.0894265876763208    0.6487956592971500 V
   0.2464439353928664    0.1158388291482171    0.9071040452340817 V
   0.2034234620623569    0.0867762418412795    0.1507385126070716 V
   0.6694703958086392    0.1056187611470971    0.2085681122770365 V
   0.6527491797955858    0.1005176683011515    0.9553441198426650 V
   0.6522422933809493    0.1085001925008058    0.7058447729324239 V
   0.6455769631034607    0.1004950933604250    0.4558319005015229 V
   0.3698511236215122    0.9521242767909017    0.6708847241933859 O
   0.3873004661840178    0.9523470145400075    0.4222906280491894 O
   0.3737593382075603    0.9524145256689307    0.9197073256027000 O
   0.3735118479359582    0.9501700422387018    0.1754353312560736 O
   0.1669827683707666    0.7949739775965625    0.5158285169553029 O
   0.1609669705980125    0.7945569171130454    0.0227492684395533 O
   0.1562341838815687    0.7925874061460385    0.2737018887347198 O
   0.1430904962165176    0.7926768848260791    0.7686058663650537 O
   0.7299051852597727    0.9359898750160741    0.9617401327567632 O
   0.7311333548930395    0.9334433620558941    0.4677657684684328 O
   0.7381633606983876    0.9360865406551844    0.7140499518572474 O
   0.7427896263001554    0.9336739328964805    0.2230887637722909 O
   0.4954700938369334    0.7925316500606823    0.5625740415393797 O
   0.4671759549368789    0.7813910099746505    0.8060541796141106 O
   0.4889106914492866    0.7935742193182962    0.0615513456822846 O
   0.4758046001588041    0.7767301661598582    0.3104589749814275 O
   0.7877693857323208    0.7430281153945550    0.5972858725210005 O
   0.7994858073076028    0.7592863607936611    0.8512481595084466 O
   0.7814486525416708    0.7331711286233112    0.0930521675102010 O
   0.8150315047661048    0.7589478003579686    0.3566011103458956 O
   0.2348947786347608    0.5526649728739647    0.7788428933727206 O
   0.2317669359492335    0.5587059015094790    0.0268605771549526 O
   0.2262344098176114    0.5479970216698519    0.2759282000040069 O
   0.2267234878806635    0.5559126183733648    0.5307418115268253 O
   0.5099163109933360    0.5798219071609203    0.9332272246124339 O
   0.5118787240266535    0.5844498013455951    0.6930229926634456 O
   0.5050565105638307    0.5774842911396300    0.4336529719849802 O
   0.5107518546645575    0.5839850053345447    0.1931804067168526 O
   0.4947146604048797    0.4225830243645429    0.5660467675905601 O
   0.4893875795525354    0.4158561368478774    0.8066792244710494 O
   0.4905191967442614    0.4204637822147146    0.0666806696107763 O
   0.4878499205546533    0.4153896513451454    0.3068252374719898 O
   0.7737220629525320    0.4521396869384311    0.7239304437188064 O
   0.7728169626326657    0.4438577239561453    0.4691217007551607 O
   0.7653025154280197    0.4471832346718359    0.2213692857377799 O
   0.7685078394712922    0.4417189654811803    0.9730222428724817 O
   0.2123194376064197    0.2570101753749719    0.4023070966163632 O
   0.2001486505575428    0.2407356779006135    0.1486792759263386 O
   0.2187004671386223    0.2666040584850635    0.9069516211364120 O
   0.1849597376194910    0.2412307064962891    0.6433608725664810 O
   0.5245306405185532    0.2232095842700300    0.6897737246068706 O
   0.5113785832397595    0.2065456094614002    0.9379082315837383 O
   0.5043286945406096    0.2073839104416668    0.4367805894903600 O
   0.5325528875147993    0.2184690986446576    0.1939657106211652 O
   0.2684351779158799    0.0663321626465531    0.5319380842723271 O
   0.2570540889881618    0.0662491545101947    0.7764819359280385 O
   0.2709561645582712    0.0643516375358001    0.0381347148303807 O
   0.2617424987444305    0.0637857391890746    0.2856325302027687 O
   0.8439943222624079    0.2071514445449961    0.7260197544372482 O
   0.8392496020979233    0.2058725452131067    0.9773675471951700 O
   0.8567467470011318    0.2070440053543498    0.2318067254641441 O
   0.8328996835771151    0.2048464332454630    0.4837596087137771 O
   0.9908520125137712    0.9911410718369438    0.6183913660356163 O
   0.0066343617253282    0.0061163791012850    0.8755786154591833 O
   0.0085538232050974    0.0093510525462621    0.3809285356414692 O
   0.9939027514508256    0.9935734215517975    0.1239721871020494 O
   0.6268338217694351    0.0480294864959112    0.0801209230481313 O
   0.6125209843383582    0.0476681682135681    0.5775489532912578 O
   0.6269660260872082    0.0496770491206553    0.8244301204407143 O
   0.6295294951866363    0.0472763093121814    0.3288659361046476 O
