Na4 Li8 Fe4 P4 C4 O28
1.0
   0.1571230000000000    0.0064470000000000    5.0614229999999996
   8.8193730000000006    6.9368999999999996    0.3078620000000000
  -8.4780689999999996    6.4764010000000001   -0.2896180000000000
Na Li Fe P C O
4 8 4 4 4 28
direct
   0.2584000000000000    0.3777080000000000    0.1216370000000001 Na
   0.2583620000000000    0.8786300000000000    0.6227230000000000 Na
   0.7400350000000000    0.6205200000000000    0.8772390000000000 Na
   0.7394999999999999    0.1223310000000000    0.3779610000000000 Na
   0.7625070000000000    0.1525530000000000    0.0567930000000000 Li
   0.7673770000000000    0.6478159999999999    0.5571730000000000 Li
   0.2389160000000000    0.8521840000000001    0.9445160000000001 Li
   0.2360310000000000    0.3481810000000000    0.4440150000000000 Li
   0.2396550000000000    0.1636580000000000    0.8766510000000001 Li
   0.2441180000000000    0.6610819999999999    0.3755820000000000 Li
   0.7558270000000001    0.8383690000000000    0.1233940000000000 Li
   0.7468469999999999    0.3433740000000000    0.6274070000000000 Li
   0.7832870000000000    0.0558370000000000    0.7104120000000000 Fe
   0.2134410000000000    0.4472479999999999    0.7887119999999999 Fe
   0.7845190000000000    0.5546560000000001    0.2099700000000000 Fe
   0.2131630000000000    0.9447870000000000    0.2902199999999999 Fe
   0.7163169999999999    0.3294080000000000    0.9174470000000001 P
   0.7198229999999999    0.8297290000000000    0.4171040000000000 P
   0.2804240000000000    0.6686429999999999    0.0815380000000000 P
   0.2794050000000000    0.1720200000000000    0.5841889999999998 P
   0.7107370000000000    0.4041890000000000    0.3633050000000000 C
   0.7113710000000000    0.9033250000000000    0.8622800000000000 C
   0.2999030000000000    0.5953060000000000    0.6357159999999999 C
   0.2875409999999999    0.0950240000000000    0.1373560000000000 C
   0.3675620000000000    0.1632730000000000    0.0664560000000000 O
   0.3701420000000000    0.6654169999999999    0.5643440000000000 O
   0.6320089999999999    0.8351289999999999    0.9336809999999999 O
   0.6311040000000000    0.3357930000000000    0.4342900000000000 O
   0.9590329999999999    0.4142169999999999    0.3453269999999999 O
   0.9593130000000000    0.9131690000000000    0.8438159999999999 O
   0.0532440000000000    0.5830370000000000    0.6563000000000000 O
   0.0392570000000000    0.0851270000000000    0.1554820000000000 O
   0.5353880000000000    0.4664480000000000    0.3079299999999999 O
   0.5354220000000000    0.9654020000000000    0.8071170000000000 O
   0.4817359999999999    0.5343380000000000    0.6885330000000000 O
   0.4625799999999999    0.0323810000000000    0.1926840000000000 O
   0.8351919999999999    0.1938920000000000    0.8902690000000000 O
   0.8387180000000002    0.6946160000000000    0.3903860000000001 O
   0.1599720000000000    0.8032360000000000    0.1069340000000000 O
   0.1633440000000000    0.3083159999999999    0.6135320000000000 O
   0.7893970000000000    0.3866270000000000    0.0618910000000000 O
   0.7923669999999999    0.8892149999999999    0.5605239999999999 O
   0.2114270000000000    0.6075890000000002    0.9373830000000001 O
   0.2045610000000000    0.1157080000000000    0.4400250000000001 O
   0.4087330000000000    0.3275100000000000    0.8955910000000000 O
   0.4125490000000001    0.8275530000000001    0.3939300000000000 O
   0.5871540000000000    0.6720560000000001    0.1043690000000000 O
   0.5866489999999999    0.1738370000000000    0.6057140000000000 O
   0.1685620000000000    0.5981390000000000    0.1739410000000000 O
   0.1680700000000000    0.1000690000000000    0.6753650000000000 O
   0.8272750000000000    0.4007749999999999    0.8262710000000000 O
   0.8317320000000000    0.9005529999999999    0.3245739999999999 O
