Na2 Mn8 As6 O24
1.0
   6.6457188061714563    6.2468804958053177   -0.0002495796997909
  -6.6457187181187427    6.2468804021323017   -0.0002486254948053
  -0.0000004276556337    2.9776861917547164    6.2495839933533022
Na Mn As O
2 8 6 24
direct
   0.5123000656863818    0.4876999339728220    0.2500000001732345 Na
   0.4877511355355847    0.5122488655672208    0.7499999981066716 Na
   0.2345615278768026    0.7654384684147202    0.2500000108291138 Mn
   0.7655463296882741    0.2344536444407681    0.7499999937756004 Mn
   0.5632381962003640    0.8731316597661001    0.3647532938850425 Mn
   0.4367726007609946    0.1269754272768190    0.6351573765285445 Mn
   0.1268683483683775    0.4367617835372371    0.1352466680996206 Mn
   0.8730245603189615    0.5632274278296111    0.8648425791621936 Mn
   0.0000062744058019    0.0000124965744910   -0.0000067896958907 Mn
  -0.0000124974459379   -0.0000062744159340    0.5000067909223668 Mn
   0.7921017309271614    0.2078982608526910    0.2499999969187175 As
   0.2079713457416972    0.7920286682397104    0.7499999873982415 As
   0.3785528715014578    0.1576496523335641    0.1327787035915763 As
   0.6215195599217828    0.8425120317959909    0.8671500570497356 As
   0.8423503968131917    0.6214471233837383    0.3672212429363424 As
   0.1574879915240805    0.3784804741525347    0.6328498824188896 As
   0.7839097673484922    0.0236613727309075    0.2213532497070480 O
   0.2159863786127597    0.9763921701499604    0.7783476997181490 O
   0.9763386141051695    0.2160902318909851    0.2786467713009542 O
   0.0236078289591474    0.7840136351483403    0.7216522876550432 O
   0.4616697498858245    0.0951933697010874    0.3281738613567891 O
   0.5382574286570998    0.9046386447263560    0.6718657212758137 O
   0.9048066270456342    0.5383302328849331    0.1718261425053900 O
   0.0953613476520043    0.4617425675422792    0.8281342533178664 O
   0.6567882296730125    0.6590632155862957    0.3914244113980250 O
   0.3429744781741010    0.3407738804647711    0.6087397578621855 O
   0.3409367830509236    0.3432117300005632    0.1085755888493053 O
   0.6592261265540862    0.6570255505398344    0.8912602495192010 O
   0.2082390685058830    0.0230015537128141    0.2067493842975862 O
   0.7919337286213775    0.9771462797849333    0.7930988009399594 O
   0.9769984527520883    0.7917609257953496    0.2932506259720060 O
   0.0228537031636479    0.2080662606872158    0.7069012163127795 O
   0.4905051297767382    0.8316025288878713    0.1110560626998002 O
   0.5095215428734258    0.1684239006208245    0.8889605524989508 O
   0.1683974678384978    0.5094948613632773    0.3889439592789259 O
   0.8315761146168291    0.4904784505831795    0.6110394655752691 O
   0.6774851804879606    0.2404744044415597    0.4741970081082912 O
   0.3225415036139798    0.7592246874362522    0.5259383351765010 O
   0.7595256006323220    0.3225148487078321    0.0258029587405345 O
   0.2407753065391417    0.6774584575306729    0.9740616659431298 O
