Na10 Fe4 P4 C4 O28
1.0
   6.6396753340221002   -0.0000010197895084    0.0000002376099975
  -0.0000015949546476   10.3944663989480013    0.0012891570485676
  -0.0000004649518243    5.1519669140807629    9.1129311107386446
Na Fe P C O
10 4 4 4 28
direct
   0.2577980332969778    0.0935076593535855    0.8216680243866156 Na
   0.2503225086892702    0.5920099407657703    0.3318045238302950 Na
  -0.0003050887405037    0.7534655093026431    0.9826010158707104 Na
   0.4985594000540340    0.7557141463668308    0.9826929974093574 Na
   0.0242779452718432    0.2312036900637858    0.4980788842561810 Na
   0.9985595451505475    0.2442857531507464    0.0173070375796647 Na
   0.4996949214911237    0.2465342642350896    0.0173990586158376 Na
   0.5242775839949060    0.7687963848525291    0.5019208963213603 Na
   0.7577980364197568    0.9064922167716183    0.1783321038235182 Na
   0.7503224344151664    0.4079900271457366    0.6681953975697655 Na
   0.7431096167922795    0.4642043146135815    0.1835070921081752 Fe
   0.7439849547573755    0.9704914934062498    0.6833802454728529 Fe
   0.2431090179379326    0.5357959215902235    0.8164922998594234 Fe
   0.2439856066989259    0.0295080923182120    0.3166192939453586 Fe
   0.2452703613559628    0.4011996417802959    0.1806804576318640 P
   0.2525481124612531    0.8900842651433946    0.6909771688663584 P
   0.7452701991765166    0.5987999971691395    0.8193195342540237 P
   0.7525483442352238    0.1099156510550577    0.3090221900436956 P
   0.7577784876326226    0.0852382101410046    0.8619175368677993 C
   0.7420167049086352    0.5782036117678091    0.3474043540027806 C
   0.2577787642933911    0.9147615833594455    0.1380828288538191 C
   0.2420167909249227    0.4217972021800546    0.6525955473321019 C
   0.2476167131761839    0.8507131338327304    0.0589298095516009 O
   0.2248965686444979    0.3694201394451463    0.5665062205534332 O
   0.7413736887549768    0.6626011840296434    0.2033796262699121 O
   0.7686632422486644    0.1629601852964896    0.7199300255863363 O
   0.7552050969539665    0.9410885263971697    0.9248840947309132 O
   0.7596962956836897    0.4361022083975724    0.3940142299777730 O
   0.4331952121979424    0.4890199152635601    0.1866136856042370 O
   0.0588822632492945    0.4915419016555146    0.1846461842323105 O
   0.4376683176604526    0.9562577278039810    0.7294289057526335 O
   0.0645827595733188    0.9698983975402915    0.7073668047657957 O
   0.7471707783033786    0.6030926386371871    0.9671727518453814 O
   0.7686471130595142    0.1054343951853404    0.4558325471514063 O
   0.2403358739567952    0.7215125278884147    0.8183800175060573 O
   0.2376029498446791    0.2425142614408438    0.3079345376767331 O
   0.7403357943944088    0.2784876560129649    0.1816196027452788 O
   0.7376024970881317    0.7574861040697922    0.6920650313533474 O
   0.2471707075968876    0.3969073449298509    0.0328268857126505 O
   0.2686465149560152    0.8945658454231380    0.5441680168151227 O
   0.9331951111679125    0.5109803046173703    0.8133861287565376 O
   0.5588821697775981    0.5084581600501223    0.8153539212459809 O
   0.5645835680399897    0.0301018442729878    0.2926333333961356 O
   0.9376681721664518    0.0437425267476877    0.2705710226191583 O
   0.2552053411167378    0.0589108527336053    0.0751163513617008 O
   0.2596961426196311    0.5638978064865015    0.6059857318022065 O
   0.2413735074737095    0.3373988958517649    0.7966203256322093 O
   0.2686640605945343    0.8370391821988147    0.2800702223964993 O
   0.7476171080921985    0.1492864444650847    0.9410699057169102 O
   0.7248966752569890    0.6305797579907022    0.4334935957769452 O
