Na4 Fe2 O6
1.0
   2.6825960000000002    4.6554960000000003   -0.0061160000000000
  -2.6824379999999999    4.6554050000000000    0.0062930000000000
  -1.8316580000000000    0.0000730000000000    5.4778969999999996
Na Fe O
4 2 6
direct
   0.1586060000000000    0.1585880000000000    0.5000049999999999 Na
   0.8413940000000000    0.8413879999999999    0.4999960000000000 Na
   0.5000030000000000    0.4999949999999999    0.5000009999999999 Na
   0.0000030000000001    0.9999979999999999    0.9999990000000000 Na
   0.6665900000000000    0.6666289999999999    0.9999899999999999 Fe
   0.3333920000000000    0.3334190000000000    0.0000120000000000 Fe
   0.3079809999999999    0.6920119999999998    0.7949880000000000 O
   0.0720380000000000    0.5493910000000000    0.2024100000000000 O
   0.4506110000000000    0.9279659999999998    0.2024030000000000 O
   0.9279620000000000    0.4506019999999998    0.7976029999999998 O
   0.5493980000000001    0.0720339999999999    0.7975859999999999 O
   0.6920220000000000    0.3079779999999999    0.2050080000000000 O
