Na8 V4 O4 F16
1.0
   6.6796059999999997    0.0004480000000000    1.5270520000000001
   1.5103979999999999    7.9761939999999996    1.7083870000000001
   0.0049690000000000   -0.0071140000000000    8.2957509999999992
Na V O F
8 4 4 16
direct
   0.6251439999999999    0.0002490000000000    0.7939619999999999 Na
   0.1251439999999999    0.7939620000000002    0.0002490000000000 Na
   0.3748560000000000    0.9997510000000002    0.2060380000000000 Na
   0.8748559999999999    0.2060380000000000    0.9997510000000001 Na
   0.9667749999999998    0.5686460000000000    0.7620730000000001 Na
   0.4667749999999999    0.7620730000000001    0.5686460000000000 Na
   0.0332250000000000    0.4313540000000001    0.2379270000000000 Na
   0.5332249999999998    0.2379270000000001    0.4313540000000000 Na
   0.9171899999999997    0.8714860000000001    0.3992110000000000 V
   0.0828100000000000    0.1285140000000000    0.6007890000000001 V
   0.5828099999999999    0.6007890000000001    0.1285140000000000 V
   0.4171900000000000    0.3992110000000000    0.8714860000000000 V
   0.0118360000000000    0.3159210000000001    0.6550530000000001 O
   0.5118360000000000    0.6550530000000001    0.3159210000000000 O
   0.4881639999999999    0.3449470000000001    0.6840790000000000 O
   0.9881639999999998    0.6840790000000001    0.3449470000000000 O
   0.2725679999999999    0.6276090000000001    0.7962890000000000 F
   0.2274320000000000    0.2037110000000001    0.3723910000000000 F
   0.7274320000000000    0.3723910000000001    0.2037110000000000 F
   0.7725679999999997    0.7962890000000002    0.6276090000000001 F
   0.6507799999999998    0.9638130000000003    0.3426450000000000 F
   0.8492199999999999    0.6573550000000002    0.0361870000000000 F
   0.1507800000000000    0.3426450000000000    0.9638130000000001 F
   0.3492200000000000    0.0361870000000000    0.6573550000000000 F
   0.9620580000000001    0.0030260000000000    0.8151400000000001 F
   0.0379419999999999    0.9969740000000002    0.1848600000000000 F
   0.4620579999999999    0.8151400000000002    0.0030260000000000 F
   0.5379420000000000    0.1848600000000001    0.9969740000000000 F
   0.1557189999999999    0.8882080000000001    0.4914970000000001 F
   0.8442809999999998    0.1117920000000000    0.5085030000000000 F
   0.6557189999999999    0.4914970000000001    0.8882080000000000 F
   0.3442809999999999    0.5085030000000003    0.1117920000000000 F
