Na12 Ti8 Ge12 O48
1.0
  -6.2113149999999999    6.2113149999999999    6.2113149999999999
   6.2113149999999999   -6.2113149999999999    6.2113149999999999
   6.2113149999999999    6.2113149999999999   -6.2113149999999999
Na Ti Ge O
12 8 12 48
direct
   0.7500000000000000    0.6250000000000000    0.8750000000000000 Na
   0.2500000000000001    0.8750000000000000    0.6250000000000000 Na
   0.6250000000000000    0.2500000000000001    0.8750000000000001 Na
   0.8750000000000001    0.7500000000000000    0.6250000000000000 Na
   0.8750000000000001    0.6250000000000001    0.2500000000000001 Na
   0.6250000000000000    0.8750000000000000    0.7500000000000000 Na
   0.2500000000000000    0.3750000000000000    0.1250000000000000 Na
   0.7500000000000000    0.1250000000000000    0.3750000000000000 Na
   0.3750000000000001    0.7500000000000000    0.1250000000000000 Na
   0.1250000000000000    0.2500000000000000    0.3750000000000000 Na
   0.1250000000000001    0.3750000000000000    0.7500000000000000 Na
   0.3750000000000001    0.1250000000000000    0.2500000000000001 Na
   0.5000000000000000    0.0000000000000000    0.5000000000000000 Ti
   0.0000000000000000    0.5000000000000000   -0.0000000000000000 Ti
   0.5000000000000000    0.5000000000000000    0.5000000000000000 Ti
  -0.0000000000000000   -0.0000000000000000    0.5000000000000000 Ti
   0.0000000000000000    0.0000000000000000    0.0000000000000000 Ti
   0.0000000000000000    0.5000000000000000    0.5000000000000000 Ti
   0.5000000000000000    0.5000000000000000    0.0000000000000000 Ti
   0.5000000000000000    0.0000000000000000    0.0000000000000000 Ti
   0.3750000000000001    0.6250000000000000    0.7500000000000000 Ge
   0.6250000000000000    0.3750000000000001    0.2500000000000000 Ge
   0.6250000000000001    0.7500000000000001    0.3750000000000000 Ge
   0.2500000000000000    0.1250000000000001    0.8750000000000001 Ge
   0.8750000000000000    0.2500000000000000    0.1250000000000000 Ge
   0.7500000000000000    0.3750000000000000    0.6250000000000000 Ge
   0.2500000000000000    0.6250000000000001    0.3750000000000001 Ge
   0.7500000000000001    0.8750000000000001    0.1250000000000000 Ge
   0.1250000000000001    0.7500000000000001    0.8750000000000001 Ge
   0.3750000000000001    0.2500000000000000    0.6250000000000000 Ge
   0.8750000000000001    0.1250000000000000    0.7500000000000000 Ge
   0.1250000000000000    0.8750000000000000    0.2499999999999999 Ge
   0.5101970000000000    0.3975719999999999    0.8164800000000000 O
   0.8164800000000000    0.5101970000000000    0.3975720000000000 O
   0.8062820000000001    0.8873750000000000    0.9898030000000001 O
   0.4189070000000000    0.1024280000000000    0.6126250000000000 O
   0.8873750000000000    0.3975719999999999    0.0810930000000000 O
   0.6835200000000000    0.0810930000000000    0.6937179999999999 O
   0.8164800000000000    0.8062820000000001    0.4189070000000000 O
   0.3975720000000000    0.8164800000000000    0.5101970000000000 O
   0.6126250000000001    0.6937180000000001    0.5101970000000000 O
   0.4189070000000001    0.8164800000000000    0.8062820000000002 O
   0.3975719999999999    0.0810930000000000    0.8873750000000000 O
   0.1024280000000001    0.9898030000000000    0.6835200000000000 O
   0.9898030000000001    0.6835200000000001    0.1024280000000000 O
   0.8062820000000001    0.4189070000000000    0.8164800000000000 O
   0.5101970000000001    0.6126250000000000    0.6937179999999999 O
   0.6937179999999999    0.5101970000000000    0.6126250000000000 O
   0.0810930000000000    0.8873750000000000    0.3975719999999999 O
   0.9898030000000001    0.8062820000000001    0.8873750000000000 O
   0.0810930000000001    0.6937179999999999    0.6835200000000000 O
   0.3873750000000000    0.3062820000000000    0.4898030000000000 O
   0.6126250000000001    0.4189070000000000    0.1024280000000000 O
   0.1024280000000000    0.6126250000000000    0.4189070000000000 O
   0.6937179999999999    0.6835200000000000    0.0810930000000000 O
   0.6835199999999999    0.1024280000000000    0.9898030000000000 O
   0.4898030000000000    0.6024280000000000    0.1835200000000000 O
   0.1835200000000000    0.4898030000000000    0.6024280000000000 O
   0.1937180000000000    0.1126250000000000    0.0101970000000000 O
   0.5810930000000001    0.8975720000000001    0.3873750000000000 O
   0.1126250000000000    0.6024280000000001    0.9189070000000001 O
   0.3164800000000000    0.9189070000000000    0.3062820000000000 O
   0.1835200000000000    0.1937180000000000    0.5810930000000000 O
   0.6024280000000000    0.1835200000000000    0.4898030000000000 O
   0.3164800000000000    0.8975720000000001    0.0101970000000000 O
   0.3062820000000001    0.3164800000000000    0.9189070000000001 O
   0.8975720000000000    0.3873750000000000    0.5810930000000000 O
   0.1126250000000000    0.0101970000000000    0.1937180000000000 O
   0.3873750000000000    0.5810930000000000    0.8975720000000000 O
   0.9189070000000000    0.3062819999999999    0.3164800000000000 O
   0.0101970000000000    0.1937180000000000    0.1126250000000000 O
   0.9189070000000001    0.1126250000000001    0.6024280000000001 O
   0.3062820000000001    0.4898030000000000    0.3873750000000000 O
   0.4898030000000000    0.3873750000000000    0.3062820000000000 O
   0.1937180000000000    0.5810930000000000    0.1835200000000000 O
   0.0101970000000001    0.3164800000000000    0.8975720000000001 O
   0.8975720000000000    0.0101969999999999    0.3164800000000000 O
   0.6024280000000001    0.9189070000000001    0.1126250000000000 O
   0.5810930000000001    0.1835200000000000    0.1937180000000000 O
   0.8873750000000001    0.9898030000000001    0.8062820000000001 O
