Cs4 Na2 V2 F12
1.0
   6.1168250000000004    0.0095940000000000    9.2182580000000005
   2.7873340000000000    5.4448520000000000    9.2182580000000005
   0.0156610000000000    0.0095940000000000   11.0630729999999993
Cs Na V F
4 2 2 12
direct
   0.7176169999999999    0.7176169999999998    0.7176169999999999 Cs
   0.2823829999999999    0.2823830000000000    0.2823830000000001 Cs
   0.1280000000000000    0.1280000000000000    0.1280000000000000 Cs
   0.8720000000000000    0.8719999999999998    0.8719999999999999 Cs
   0.5970700000000000    0.5970699999999999    0.5970700000000001 Na
   0.4029300000000000    0.4029300000000000    0.4029300000000000 Na
   0.0000000000000000    0.0000000000000000    0.0000000000000000 V
   0.5000000000000000    0.4999999999999999    0.5000000000000001 V
   0.1849510000000001    0.7386479999999999    0.1849510000000000 F
   0.6043280000000001    0.6043280000000000    0.1755630000000000 F
   0.2613519999999999    0.8150490000000001    0.8150490000000001 F
   0.1755630000000000    0.6043280000000000    0.6043280000000001 F
   0.8150489999999999    0.2613520000000000    0.8150490000000001 F
   0.6043280000000000    0.1755630000000000    0.6043280000000000 F
   0.7386480000000002    0.1849510000000000    0.1849509999999998 F
   0.1849510000000000    0.1849510000000000    0.7386480000000000 F
   0.8244370000000000    0.3956720000000000    0.3956720000000001 F
   0.8150490000000001    0.8150489999999999    0.2613520000000000 F
   0.3956720000000000    0.3956720000000000    0.8244370000000001 F
   0.3956719999999999    0.8244369999999999    0.3956719999999999 F
