Na21 Mg10 Nb2 P15 S3 O72
1.0
   8.9874623821121489   -0.0071888353270368    0.0066127386329841
  -4.4999721939162960    7.7913561482600668    0.0101871741052064
   0.0169935499117647    0.0398412694803556   22.1141413262872142
Na Mg Nb P S O
21 10 2 15 3 72
direct
   0.3581568823579682    0.3503761891263076    0.2407339755554596 Na
   0.9915046195378838    0.3464028366155264    0.7310149773778327 Na
   0.3557821237449339    0.0059468780695166    0.7318805414015306 Na
   0.2949842602210003    0.3240990941192186    0.5765766657692063 Na
   0.0402049555307013    0.6973505879503417    0.5866655446770613 Na
   0.6679456352495934    0.9811689970582531    0.5822160986453565 Na
   0.3029809003771242    0.9795164765054785    0.0882675846758818 Na
   0.6574894857852867    0.6868713143226405    0.0968043403811115 Na
   0.0372232385160375    0.3321317048072689    0.0947793306703851 Na
   0.9625284661117899    0.6669987567424455    0.9114589293597689 Na
   0.7062457014271027    0.0401015264656865    0.9077563958166703 Na
   0.3290369043666828    0.2920018440163490    0.9175691757201432 Na
   0.9638351410353747    0.2947593801623712    0.4165508142390392 Na
   0.3324523177994725    0.0405309736127431    0.4164287526659873 Na
   0.7064268068309518    0.6649272197968596    0.4059844330081432 Na
   0.0021184793444660   -0.0016900716565610    0.4989801586010932 Na
   0.0006317338203658    0.0048258759210537    0.9999837627502951 Na
   0.6634934776044228    0.3461916748213353    0.8267493432312664 Na
   0.6807972748903517    0.3288507552923527    0.3270655969524425 Na
   0.3278393788383500    0.6802094299734217    0.1694334933759058 Na
   0.3509542101525120    0.6637605687133503    0.6626616682054343 Na
   0.9977890798643758    1.0024342913819164    0.3493878200066550 Mg
   1.0000274441544763    0.9967198065811445    0.8506873570379835 Mg
   0.0013556684772465    0.0040245500099852    0.6503152016811813 Mg
   0.0064684989900096    0.0023063170462989    0.1573250086521800 Mg
   0.6680115371854924    0.3341897114385657    0.6835690694164370 Mg
   0.6664482520919981    0.3359777917930969    0.1885685348211305 Mg
   0.6582949269662575    0.3308654467804665    0.9785492697035805 Mg
   0.6658095664283253    0.3261607120033766    0.4794242594070806 Mg
   0.3335345072862851    0.6599369909608567    0.0187308661122038 Mg
   0.3283512242857266    0.6682999608346790    0.5187341304225135 Mg
   0.3356840836488728    0.6699797890635798    0.3136629202450981 Nb
   0.3351071652486139    0.6675183225679043    0.8146636544692158 Nb
   0.2965111354887204    0.0022732082201721    0.2501832140394595 P
   0.7070728951783192    0.7046800999190928    0.2506403465897741 P
   0.9957008163174380    0.2961389342905538    0.2519993886206336 P
   0.2958399615004486    0.2932900982570107    0.7528416428871459 P
   0.9952277385620737    0.7024934415301191    0.7519897177451083 P
   0.7066671703827931    0.0004205259023268    0.7507197999199495 P
   0.9635822383420773    0.3311841077698449    0.5814947093363604 P
   0.3692829131254570    0.0378007000251291    0.5828726987015053 P
   0.3671670532244798    0.3314654877897494    0.0833359674260163 P
   0.6303526883814023    0.6705938463996823    0.9222135527355468 P
   0.0365185450368756    0.3699329080837619    0.9205677797547449 P
   0.3309226842268810    0.9590159912149018    0.9215129131983344 P
   0.6302044950976562    0.9586089954753146    0.4213889617099192 P
   0.3343865280792832    0.3724477285878997    0.4190845886055669 P
   0.0391027982024693    0.6692653385742787    0.4204428890790552 P
   0.6719235468804609    0.6284415023583514    0.5800650399733986 S
   0.9577819078042571    0.6287304941902493    0.0790318231637495 S
   0.6694718900687356    0.0417074876174202    0.0804621938670473 S
   0.2054808601799848    0.0245207560306367    0.3048986858214632 O
   0.8049981222504132    0.7929225520057286    0.3078817429849778 O
   0.9791041485022014    0.1999754973912404    0.3109242411069270 O
   0.2142491869029158    0.1915954021403350    0.8110495833238666 O
   0.9824877545793825    0.7834153734587802    0.8110098120897037 O
   0.8100013327587646    0.0152631248081167    0.8075359011783936 O
   0.7804733684681290    0.9730404724792108    0.6922250661710837 O
   0.1775589825027795    0.2204996482265663    0.6974368775405388 O
   0.0353641365161404    0.8194922678984594    0.6964126933330569 O
   0.7851984439924765    0.8072656593472135    0.1920063414669119 O
   0.0390507936734590    0.2189381139298105    0.1966024534658051 O
   0.1951326541959705    0.9664373051874646    0.1906337536919069 O
   0.8712551786506598    0.3461510112118808    0.6381312457322508 O
   0.4761529747436735    0.1333936152576065    0.6389629829925206 O
   0.6672256606804029    0.5253723469916860    0.6323316584341175 O
   0.8565539185186232    0.5234933022483143    0.1303622182545237 O
   0.6704514274757154    0.1479163636155855    0.1307481223026173 O
   0.4750660628541907    0.3456994192479843    0.1393181757133745 O
   0.4548739885064625    0.3162288228476586    0.0248957143558619 O
   0.8738752642970957    0.5467702363860960    0.0208059843167515 O
   0.6782064406874762    0.1263819606808427    0.0214763978685014 O
   0.4534085798278689    0.1412525166977976    0.5243982575416640 O
   0.6808891098353432    0.5492393704609319    0.5223720665304508 O
   0.8620881606319846    0.3188190249201857    0.5235302097963782 O
   0.5463894726723506    0.6828139516966192    0.9803612191195380 O
   0.1389318576307405    0.4576117263761608    0.9772753967647514 O
   0.3218925764959281    0.8571430279795320    0.9779975919351772 O
   0.5427905358658299    0.8615085674139754    0.4793332241754306 O
   0.3210513350439148    0.4651006216007644    0.4749143036735763 O
   0.1368810328026372    0.6866043970720922    0.4788286365888947 O
   0.1518213094694481    0.6584996467891646    0.3662977273442450 O
   0.5146628239138581    0.8456465979683261    0.3660814597730930 O
   0.3439810725363230    0.4821804503979657    0.3609173199347663 O
   0.1427773594892247    0.4868274838607607    0.8639604346213932 O
   0.3373430186851412    0.8542647931701098    0.8640733047885871 O
   0.5105467457224858    0.6648030012650524    0.8673545709964386 O
   0.0219194277017567    0.8299675562878710    0.4124947149063887 O
   0.8095520902550117    0.9771620286813094    0.4161240941375200 O
   0.1723450953935717    0.1928383785275009    0.4152094832954137 O
   0.0194020086153348    0.1914902943216648    0.9145952427679904 O
   0.1687560338520028    0.9757048967950903    0.9173821775243607 O
   0.8089598896433470    0.8310530944392710    0.9152988996509319 O
   0.9796557486466113    0.1659662769961713    0.5842586598940028 O
   0.1847586687201096    0.0136063538140349    0.5866872966604355 O
   0.8266884999911776    0.8044926737257548    0.5827528137163630 O
   0.9750554887128078    0.8032661429013146    0.0805847292698846 O
   0.8215905123594452    0.0159681526298962    0.0833416718563583 O
   0.1833100377119747    0.1680675657549216    0.0862162702935078 O
   0.6785197836558380    0.1564658694582375    0.7476846177236754 O
   0.4742094188509911    0.3142898554693943    0.7442929806863232 O
   0.8480263096761368    0.5174446166758941    0.7450320345939894 O
   0.6689366111701583    0.5180269351809790    0.2472128062983252 O
   0.8466634822597692    0.3273489042595898    0.2418585175137830 O
   0.4773827225445091    0.1599642992664441    0.2453258850416164 O
   0.6390990651192902    0.5039067430785497    0.9161439693418116 O
   0.8591661434010195    0.3583909900209896    0.9167699399757134 O
   0.4963026167983671    0.1365809937617934    0.9163712239965397 O
   0.6389224593180983    0.1339686198067164    0.4152503249130696 O
   0.4999778870466177    0.3603709186264443    0.4164627459899233 O
   0.8629284889990091    0.5027702678619903    0.4159693322466266 O
   0.3471308430492136    0.4957251130661486    0.0836563966045355 O
   0.1347110035711524    0.6497975601073506    0.0828796926332382 O
   0.5079305370462734    0.8687745146633151    0.0848741604179492 O
   0.3550801768538770    0.8567179889935802    0.5837352667555952 O
   0.5135364854727786    0.6440911999928310    0.5824042286739097 O
   0.1489155788746370    0.4924348447260359    0.5820565329915314 O
   0.3197459225268136    0.8389919769287542    0.2602336525038463 O
   0.5161742492233382    0.6825349877025489    0.2555709217624311 O
   0.1686416121682510    0.4831847194532428    0.2576353738508358 O
   0.3174887194384182    0.4814866050093637    0.7603115977454323 O
   0.1671866289275646    0.6835178715888494    0.7574695653292355 O
   0.5148905466944063    0.8376625296983740    0.7578800474322288 O
