Na8 Fe4 P4 C4 O28
1.0
   6.5300157116840190    0.0000000706539295    0.0000000902281950
   0.0000001121201289   10.3628955610658533   -0.0006829760893693
   0.0000001824563635    5.2807917265943365    9.0730410954398266
Na Fe P C O
8 4 4 4 28
direct
   0.2615224503290591    0.0802219933193683    0.5769606563436271 Na
   0.2383401337874435    0.0801369030074167    0.0771374746789914 Na
   0.4823864271954526    0.2660301076888340    0.7393343715779874 Na
   0.0177445278387983    0.2658968727831122    0.2395879269444439 Na
   0.9823863853263807    0.7339698909540527    0.7606656443056837 Na
   0.5177445151368618    0.7341031406938110    0.2604120678848416 Na
   0.7615224348494770    0.9197780260387732    0.9230393306104204 Na
   0.7383401490664629    0.9198630928398368    0.4228625229306455 Na
   0.7507919226097129    0.3452879390334593    0.9370709154766957 Fe
   0.7495983933301672    0.3452155192441277    0.4370578356842620 Fe
   0.2507919520949597    0.6547120580711933    0.5629290919762869 Fe
   0.2495983800841980    0.6547845083463389    0.0629421572535134 Fe
   0.2503018766960775    0.4249136235654927    0.9307169849125243 P
   0.2500283483704627    0.4249292146958684    0.4306763034951493 P
   0.7503019194042012    0.5750865083815592    0.5692829154989951 P
   0.7500283608533108    0.5750708301320919    0.0693236076157296 P
   0.7588295076299629    0.0664727297785438    0.6031879352961472 C
   0.7410263905295615    0.0664690813680026    0.1031276663549552 C
   0.2588295021819085    0.9335273562166858    0.8968121343138941 C
   0.2410264502615922    0.9335307571966104    0.3968724315932426 C
   0.2647130502231632    0.0739459011672927    0.8117819700041996 O
   0.2351340166696600    0.0739376692977045    0.3118435235086997 O
   0.7327121747674842    0.1292376792191210    0.9588014368702900 O
   0.7673736973693696    0.1292846352778308    0.4588284842040633 O
   0.7424467143647991    0.1598485632778693    0.6527197663216161 O
   0.7574976257162664    0.1598733304121260    0.1526349049270103 O
   0.0602051314725128    0.3228457672926729    0.9611221010530063 O
   0.4366226039884748    0.3261269248762813    0.9446869486265576 O
   0.0636916056774411    0.3261533960139937    0.4446518953915026 O
   0.4401127103025606    0.3228732291549204    0.4609808820572150 O
   0.7405202076932388    0.4324510580865999    0.7220720044867293 O
   0.7596537742794026    0.4323528179797982    0.2220478737668971 O
   0.2482838223649070    0.4719838506666527    0.5500439229327220 O
   0.2520335851836960    0.4720445644976111    0.0500434453095713 O
   0.7482838148980691    0.5280160871607051    0.9499561288931244 O
   0.7520335935439821    0.5279554339832534    0.4499565216562274 O
   0.2405201849042985    0.5675488611992254    0.7779280413606388 O
   0.2596538391347058    0.5676471753336734    0.2779521284384515 O
   0.5602052397001750    0.6771541404663922    0.5388779176157310 O
   0.9366225302604408    0.6738730527171335    0.5553130320544788 O
   0.9401125982226415    0.6771267333984529    0.0390191389662716 O
   0.5636916513167706    0.6738465811652632    0.0553481121129971 O
   0.2424466141075534    0.8401514554557877    0.8472801880305344 O
   0.2574975949746727    0.8401266870795995    0.3473651375597784 O
   0.2327122349037219    0.8707623218465937    0.5411985521522495 O
   0.2673737190182309    0.8707153868422584    0.0411715547994643 O
   0.7647130335582565    0.9260540393830804    0.6882180510743292 O
   0.7351340574549574    0.9260623599676228    0.1881564963970276 O
