Na4 V4 O8
1.0
  -4.5140120000000001    2.6126619999999998    0.8323410000000000
  -2.7525659999999998   -5.2744049999999998    1.6249229999999999
   2.8900809999999999    0.0002770000000000    4.8957780000000000
Na V O
4 4 8
direct
   0.9999990000000002    0.7499930000000001    0.5000080000000000 Na
   0.0000010000000000    0.2500000000000001    0.4999920000000000 Na
   0.5000010000000001    0.5000070000000001    0.4999919999999999 Na
   0.4999990000000001    0.0000000000000000    0.5000080000000001 Na
   0.5000100000000001    0.7499310000000001    0.9999800000000000 V
   0.9999910000000002    0.5000700000000002    0.0000199999999999 V
   0.4999820000000000    0.2498790000000001    0.0000190000000000 V
   0.0000180000000001    0.0001210000000000    0.9999810000000002 V
   0.7641200000000001    0.7498920000000001    0.7987000000000001 O
   0.7642020000000002    0.2499400000000001    0.7987069999999999 O
   0.2641840000000000    0.5001160000000001    0.7987140000000000 O
   0.2641370000000000    0.0000900000000000    0.7986890000000001 O
   0.2358160000000001    0.7498840000000002    0.2012869999999999 O
   0.2358630000000000    0.2499100000000000    0.2013110000000000 O
   0.7358800000000001    0.5001080000000001    0.2013000000000000 O
   0.7357980000000000    0.0000600000000000    0.2012930000000000 O
