Na2 Nb6 Te8 O32
1.0
   7.5555859999999999    0.0000000000000000    0.0000000000000000
   0.0000000000000000    6.7126500000000000    0.0000000000000000
   0.0000000000000000    3.0213880000000000   14.1071279999999994
Na Nb Te O
2 6 8 32
direct
   0.5000000000000000    0.5000000000000001    0.5000000000000000 Na
   0.0000000000000000    0.5000000000000001    0.5000000000000000 Na
   0.4997870000000000    0.0769899999999999    0.7264050000000001 Nb
   0.0002130000000000    0.0769899999999999    0.7264050000000001 Nb
   0.5002130000000000    0.9230100000000001    0.2735950000000000 Nb
   0.5000000000000000    0.0000000000000000    0.0000000000000000 Nb
   0.9997870000000001    0.9230100000000001    0.2735950000000000 Nb
   0.0000000000000000    0.0000000000000000    0.0000000000000000 Nb
   0.2500000000000000    0.4892329999999999    0.9992910000000002 Te
   0.2500000000000000    0.5956770000000000    0.7212880000000000 Te
   0.7500000000000001    0.0525389999999999    0.5017050000000000 Te
   0.7500000000000001    0.5743170000000000    0.7106080000000000 Te
   0.7500000000000001    0.5107670000000000    0.0007090000000000 Te
   0.2500000000000000    0.9474610000000001    0.4982950000000000 Te
   0.2500000000000000    0.4256830000000000    0.2893920000000000 Te
   0.7500000000000001    0.4043230000000000    0.2787120000000000 Te
   0.2500000000000000    0.0098070000000000    0.2609760000000000 O
   0.5608150000000001    0.3790070000000000    0.7050040000000000 O
   0.4464590000000001    0.7810229999999999    0.7179990000000001 O
   0.2500000000000000    0.3120869999999999    0.4189630000000000 O
   0.2500000000000000    0.1433560000000000    0.6891850000000000 O
   0.7500000000000001    0.3874540000000000    0.1274860000000000 O
   0.7500000000000001    0.6879130000000000    0.5810370000000000 O
   0.0535410000000000    0.7810229999999999    0.7179990000000001 O
   0.7500000000000001    0.3460780000000000    0.4230290000000000 O
   0.5331270000000000    0.9525780000000000    0.1421040000000000 O
   0.9464590000000002    0.2189770000000000    0.2820010000000000 O
   0.0575300000000000    0.8765880000000000    0.4259450000000000 O
   0.0331270000000000    0.0474219999999999    0.8578960000000000 O
   0.4391850000000000    0.6209929999999999    0.2949960000000000 O
   0.7500000000000001    0.8566440000000000    0.3108150000000000 O
   0.7500000000000001    0.9901930000000000    0.7390240000000000 O
   0.9391850000000002    0.3790070000000000    0.7050040000000000 O
   0.4668730000000000    0.0474219999999999    0.8578960000000000 O
   0.4406800000000001    0.2969950000000000    0.9950510000000001 O
   0.9424700000000001    0.1234119999999999    0.5740550000000000 O
   0.9406800000000001    0.7030050000000002    0.0049490000000000 O
   0.2500000000000000    0.6125460000000000    0.8725140000000000 O
   0.7500000000000001    0.0797189999999999    0.9809050000000001 O
   0.4424700000000000    0.8765880000000000    0.4259450000000000 O
   0.2500000000000000    0.6539220000000000    0.5769710000000000 O
   0.0593200000000000    0.2969950000000000    0.9950510000000001 O
   0.5575300000000000    0.1234119999999999    0.5740550000000000 O
   0.5593200000000000    0.7030050000000002    0.0049490000000000 O
   0.2500000000000000    0.9202810000000000    0.0190950000000000 O
   0.0608150000000000    0.6209929999999999    0.2949960000000000 O
   0.9668730000000001    0.9525780000000000    0.1421040000000000 O
   0.5535409999999999    0.2189770000000000    0.2820010000000000 O
