K4 Na2 Ca4 Ti2 Si14 O40
1.0
   0.0106423624633093    0.0041800205234667    7.1625953458311722
  10.3621598074473109   -0.0543868882024290   -1.6889665825731874
  -0.6455259256777365   12.3225440311632877   -0.2094633308976144
K Na Ca Ti Si O
4 2 4 2 14 40
direct
   0.9248218588238039    0.6491373091998094    0.9947304463463246 K
   0.3874656422849251    0.5426608336083306    0.7600849837209921 K
   0.3638097704221351    0.3230738113673798    0.1970558517130730 K
   0.8410004042903362    0.4209017037845172    0.4423121590382084 K
   0.5017902085210271    0.9978189652045113    0.9894625195764200 Na
   0.7274794789451340    0.9651838245970477    0.2132698407948075 Na
   0.0262299726498877    0.1028957613468864    0.6938144023998617 Ca
   0.5226487756935704    0.1057906252809874    0.6816191247833665 Ca
   0.2032734168166423    0.8600682366401186    0.5101351337216051 Ca
   0.7065112122508017    0.8571809342897351    0.5207760422749971 Ca
   0.0178564263696045    0.9946868515759509    0.0003253896559100 Ti
   0.2112427493581958    0.9711375743363865    0.2040437775760996 Ti
   0.5441895696015064    0.2935254562407553    0.9122309472539717 Si
   0.1168106014624900    0.2994400261228587    0.9211211966265382 Si
   0.9849268457620717    0.1120293176215552    0.4102459615842564 Si
   0.5367940536624720    0.1079625898884801    0.4022467022115246 Si
   0.2431686320854367    0.8517118646100671    0.7936664391723026 Si
   0.6917634598359989    0.8558590730991155    0.8004808487105791 Si
   0.1114098918670644    0.6651896892697508    0.2838913966779518 Si
   0.6828980882041320    0.6697470413372192    0.2883790868764865 Si
   0.3098990832879546    0.2967234969823659    0.5163918014184481 Si
   0.8340368448166746    0.2615017703280080    0.0922126424741490 Si
   0.3952961055706988    0.7025729482926312    0.1116494658834689 Si
   0.3825223450513799    0.5839635010669634    0.4517453701516538 Si
   0.9179539296764869    0.6665674513046971    0.6863501820031235 Si
   0.8458701998068310    0.3792509944548443    0.7508739357501552 Si
   0.8290551387129589    0.3080544336991481    0.2209642305504115 O
   0.1083825453204372    0.2567083586128092    0.4458128564312218 O
   0.4784951544850349    0.2518578579065726    0.4388364719464553 O
   0.3540437267103433    0.4560971077737829    0.5253836186475452 O
   0.0593406422955905    0.0610079791693800    0.2947678020380970 O
   0.7045550953617833    0.8130755404390503    0.3393723264256185 O
   0.3794412462428480    0.6590544173779620    0.9819297389878002 O
   0.8246633041402459    0.1063251234148491    0.0761140225019248 O
   0.0277452059917431    0.3394843058500497    0.0386327137706361 O
   0.6506946033139717    0.3113406063311990    0.0339336952741197 O
   0.5808246390138551    0.6508662058560564    0.1651751632663183 O
   0.2041168864860673    0.6248941785831682    0.1678342610279709 O
   0.8828785748892249    0.6119569448411415    0.2718641208212405 O
   0.5543594282017248    0.5639676041093482    0.3657784263710145 O
   0.1847734761322530    0.5755508821439699    0.3775268680667923 O
   0.7679544195146544    0.1396768855669000    0.3879593095025874 O
   0.0406477282543066    0.3895365594261362    0.8284369214073174 O
   0.0564500097649656    0.1476813623166897    0.8884606575339107 O
   0.3455399796185746    0.3524058128674425    0.9320084868383502 O
   0.1691973206616048    0.9023820151448073    0.9094405719694716 O
   0.7868883894064014    0.9056965508424520    0.9183532261071248 O
   0.7484138026667558    0.7114647619639149    0.7629975942294447 O
   0.2354477991884086    0.9480528644646153    0.6962526850239656 O
   0.7396109517344573    0.9532568885248074    0.7033431414196375 O
   0.8093552955339840    0.2490886293683245    0.6749999332894514 O
   0.3022595637395750    0.2390609793359869    0.6338842524349190 O
   0.9275567635062153    0.7240177431070094    0.5687667439216094 O
   0.4218971776982416    0.7136099388807339    0.5280921481445617 O
   0.4888101461492844    0.0102187420996430    0.4990407810015269 O
   0.1176500546702565    0.7068271379430063    0.7591065741734039 O
   0.4603369407331023    0.8246919793666471    0.8145364040890469 O
   0.8762294405695074    0.5071122989763018    0.6772888450420164 O
   0.4431064940713826    0.0587130621062995    0.2837122015023500 O
   0.9913756153572874    0.0148425997689082    0.5071630126235113 O
   0.5179704689251317    0.1496172124175398    0.8623721816845464 O
   0.9962608377204800    0.8840905501627175    0.1135589114666933 O
   0.2333363503156361    0.0811542082116034    0.0900367047160447 O
   0.6694941480310005    0.3985616008885735    0.8333875252054636 O
   0.1711926335567043    0.8173036954323842    0.3155092948003740 O
   0.4066477631146256    0.8581470352030867    0.1281399751737674 O
