Na4 Cr2 Cl8
1.0
  11.6282779999999999    0.0000000000000000    0.0000000000000000
   0.0000000000000000    4.0384880000000001    0.0000000000000000
   0.0000000000000000    0.4668060000000000    7.0010760000000003
Na Cr Cl
4 2 8
direct
   0.6803260000000000    0.5167610000000000    0.0939390000000000 Na
   0.1803260000000000    0.4832390000000000    0.4060610000000001 Na
   0.8196740000000001    0.5167610000000000    0.5939390000000001 Na
   0.3196740000000000    0.4832390000000000    0.9060610000000001 Na
   0.5000000000000000   -0.0000000000000000    0.5000000000000000 Cr
   0.0000000000000000    0.0000000000000000    0.0000000000000000 Cr
   0.9530280000000001    0.5668069999999999    0.2402170000000000 Cl
   0.4530280000000000    0.4331930000000000    0.2597830000000000 Cl
   0.8065140000000000    0.0080800000000000    0.8846330000000000 Cl
   0.3065140000000001    0.9919200000000001    0.6153670000000000 Cl
   0.1934860000000000    0.9919200000000001    0.1153670000000000 Cl
   0.6934860000000000    0.0080800000000000    0.3846330000000000 Cl
   0.0469720000000000    0.4331930000000000    0.7597830000000000 Cl
   0.5469720000000000    0.5668070000000001    0.7402170000000000 Cl
