Na6 Eu2 Ti4 Nb4 O24
1.0
   5.5290368462003423    0.0058016171272132   -0.0000627068764073
   0.0062620478757517    5.6120016272275217    0.0000800614236469
  -0.0000808030767311    0.0012742588759617   15.6106729109573283
Na Eu Ti Nb O
6 2 4 4 24
direct
  -0.0025499722422459    0.9930144635514139    0.3697655994765253 Na
  -0.0026295817848686    0.9931901170996328    0.8803347869671908 Na
   0.5039541403406004    0.4936715376018406    0.8803269053092048 Na
   0.5040266670324197    0.4936423300331713    0.3697195745397810 Na
   0.5090969909654799    0.5382231277278186    0.6250212757699708 Na
   0.9925213120953146    0.0368646202504696    0.6250319101113847 Na
   0.5033434109100738    0.5420398678440266    0.1249910608064164 Eu
   0.9967876617094829    0.0415659543701951    0.1250704867309262 Eu
   0.0063744688813705    0.5192017105933018    0.2528389881197179 Ti
   0.4946816982570054    0.0190350052590344    0.2526598816145803 Ti
   0.4945793680802381    0.0195799580625452    0.9973237164891219 Ti
   0.0064195493376575    0.5189187157544050    0.9973681504868661 Ti
   0.4952681490043147    0.0181377593097710    0.7513124012677949 Nb
   0.4951769148894184    0.0182120168556630    0.4986153481468127 Nb
   0.0062665353027932    0.5177984370362466    0.4986683875612230 Nb
   0.0061627485867226    0.5178033399157375    0.7516023160560740 Nb
   0.0710507880095534    0.4708246792422987    0.1249422380019239 O
   0.0678710129981301    0.4753907869105665    0.6249649143741488 O
   0.2047184016406615    0.1993254913418825    0.4814451606413237 O
   0.2142281519188424    0.2023312323133186    0.9916712999934295 O
   0.2149486704821485    0.2023770005870942    0.2581212618274672 O
   0.2045239666531096    0.1991932748111850    0.7685176693349458 O
   0.2849288871771757    0.7022647402494258    0.2583470037849385 O
   0.2944815062359097    0.6995228067335981    0.4813234779883466 O
   0.2943183097552142    0.6994990758001400    0.7685769787190589 O
   0.2842646573697687    0.7022942896376284    0.9917324815055474 O
   0.4280753562337188    0.9706757841218543    0.1249693679630542 O
   0.4320489261085250    0.9753829478029037    0.6249931457500644 O
   0.5631542757703201    0.0036987114219827    0.8782885356324275 O
   0.5629762605144705    0.0041771515269337    0.3716939524767862 O
   0.7148828972105129    0.2687391587730935    0.0253918905190408 O
   0.7152145549103409    0.2687639127953176    0.2245617138772681 O
   0.7078314225033790    0.2816648137363552    0.5161390997111668 O
   0.7074960784935667    0.2818343900587961    0.7338323380908078 O
   0.7840604857349378    0.7687215116515133    0.2245658646086785 O
   0.7910944109994140    0.7812510763556091    0.7337903249479566 O
   0.7838652213655247    0.7689264772886524    0.0254024998237750 O
   0.7914374108338281    0.7813999553979888    0.5160932235223641 O
   0.9366818362553753    0.5037244044533129    0.3716380768145862 O
   0.9368105864992260    0.5040867964492046    0.8783010047911693 O
