Na4 Mn4 B4 O12
1.0
   2.5850430000000002    4.5350000000000001   -0.0066550000000000
  -7.7589499999999996    4.5371980000000001   -0.0153710000000000
  -0.9565340000000000   -0.0112330000000000    5.7991429999999999
Na Mn B O
4 4 4 12
direct
   0.4989329999999999    0.8355379999999999    0.7490290000000001 Na
   0.9989389999999999    0.3355330000000000    0.7490360000000001 Na
   0.0060230000000000    0.6703820000000000    0.2497060000000000 Na
   0.5060209999999999    0.1703850000000000    0.2497110000000000 Na
   0.5007330000000000    0.5030890000000000    0.4981010000000001 Mn
   0.9995939999999998    0.0025910000000000    0.9983540000000000 Mn
   0.0006880000000000    0.0031670000000000    0.4982140000000000 Mn
   0.4997209999999999    0.5025870000000000    0.9982580000000000 Mn
   0.9989599999999998    0.6688039999999998    0.7482690000000001 B
   0.4989429999999999    0.1687980000000000    0.7482640000000000 B
   0.5002489999999999    0.8368739999999999    0.2477780000000000 B
   0.0002560000000000    0.3368689999999999    0.2477730000000000 B
   0.7711990000000000    0.5904090000000000    0.7508870000000001 O
   0.2711900000000000    0.0904080000000000    0.7508880000000001 O
   0.7280869999999998    0.9151349999999999    0.2474080000000000 O
   0.2280750000000000    0.4151380000000000    0.2473930000000000 O
   0.2230480000000001    0.5988969999999999    0.7008400000000000 O
   0.7230329999999998    0.0988960000000000    0.7008410000000000 O
   0.0010580000000000    0.8165150000000000    0.7925400000000000 O
   0.5010619999999999    0.3165089999999999    0.7925410000000001 O
   0.4981980000000000    0.6895039999999999    0.2017540000000000 O
   0.9982029999999998    0.1894990000000000    0.2017700000000000 O
   0.2753400000000001    0.9063410000000000    0.2942470000000000 O
   0.7753470000000000    0.4063410000000000    0.2942370000000000 O
