K6 Na2 Fe4 O16
1.0
   5.9062729999999997    0.0000170000000000   -0.0000390000000000
   2.9531010000000002    5.1149389999999997    7.6585239999999999
  -2.9532029999999998   -5.1146380000000002    7.6583620000000003
K Na Fe O
6 2 4 16
direct
   0.9999990000000000    0.2500000000000000    0.2500000000000000 K
  -0.0000000000000000    0.7500000000000001    0.7500000000000001 K
   0.6666660000000000    0.7507080000000000    0.0840390000000000 K
   0.6666710000000000    0.2507110000000000    0.5840500000000000 K
   0.3333289999999999    0.2492890000000000    0.9159490000000001 K
   0.3333340000000000    0.7492920000000000    0.4159610000000001 K
   0.0000020000000001    0.9999980000000001    0.0000010000000001 Na
   0.9999980000000001    0.5000030000000000    0.4999990000000000 Na
   0.3333329999999999    0.0295590000000000    0.6962220000000000 Fe
   0.6666710000000000    0.4704400000000000    0.8037780000000000 Fe
   0.3333250000000001    0.5295800000000001    0.1962290000000000 Fe
   0.6666740000000000    0.9704190000000000    0.3037740000000002 Fe
   0.6666629999999999    0.5772120000000001    0.9105390000000001 O
   0.6666699999999999    0.0772220000000000    0.4105590000000000 O
   0.3333300000000000    0.4227780000000000    0.0894410000000000 O
   0.3333360000000001    0.9227869999999999    0.5894600000000000 O
   0.8188909999999999    0.2789390000000000    0.9167080000000000 O
   0.8188950000000003    0.7789420000000000    0.4167170000000001 O
   0.8188800000000002    0.5072620000000000    0.6883970000000001 O
   0.8188750000000000    0.0072700000000000    0.1883930000000000 O
   0.3622510000000000    0.5072620000000001    0.6884000000000001 O
   0.3622359999999999    0.0072700000000000    0.1883920000000000 O
   0.1811070000000000    0.7210540000000000    0.0832830000000000 O
   0.1811069999999999    0.2210640000000000    0.5832920000000000 O
   0.6377630000000000    0.4927300000000001    0.3116070000000001 O
   0.6377500000000002    0.9927380000000000    0.8116000000000001 O
   0.1811240000000000    0.4927320000000000    0.3116080000000001 O
   0.1811209999999999    0.9927390000000000    0.8116040000000001 O
