Na3 Nb4 Zn8 P3 S15 O72
1.0
   8.7366928624213323   -0.0002831026996909    0.0070513934230065
  -4.3685970780392296    7.5554371576580301   -0.0089148210209024
   0.0176160340134077   -0.0153177402624807   22.6698578173719767
Na Nb Zn P S O
3 4 8 3 15 72
direct
   0.9887379497938971    0.9901315546786491    0.0052066935435366 Na
   0.6677328398624700    0.3330082211408158    0.8342085379011044 Na
   0.6628670557946775    0.3343434147343296    0.3393959160145417 Na
   0.0053745339237558    0.0005673625449409    0.6503928361195642 Nb
   0.6733103444418911    0.3319509926446748    0.1848725525765564 Nb
   0.3327284963972990    0.6705702936091278    0.0228404686846871 Nb
   0.3342175949758416    0.6719274388620028    0.5171816137442083 Nb
   0.0025441754279506   -0.0004404709652896    0.3547507043299925 Zn
   0.9975938397407357   -0.0019725568915769    0.8577213745111891 Zn
   0.9914514690250624    0.9913954059766691    0.1492441893885199 Zn
   0.6614735585342806    0.3222936605400412    0.6848355548099948 Zn
   0.6784687503826509    0.3393470692060950    0.9801606063714231 Zn
   0.6562180844371779    0.3281576287660241    0.4842010458833959 Zn
   0.3318977100105243    0.6676875628715341    0.3113734836948895 Zn
   0.3353292474980558    0.6685875794259493    0.8090637847897618 Zn
   0.3840907500080070    0.0505741734805126    0.5839672846325934 P
   0.9523799103895512    0.6320674679219856    0.0788477762813274 P
   0.6791685405309306    0.0495697428257382    0.0781357225716019 P
   0.2890547495730095    1.0002033584594476    0.2505943934775292 S
   0.7070759726725726    0.7073059929327250    0.2515761840226073 S
   0.0036830648913822    0.2890781073754712    0.2505268877634776 S
   0.2971854183832077    0.2917365514827038    0.7557025928224684 S
   0.9914613189684485    0.7001189587569521    0.7547602619876700 S
   0.7109276273374676    0.0060877189623525    0.7554491674652385 S
   0.9581969350752847    0.3347266621903840    0.5839501605755124 S
   0.6671461026662115    0.6243181034464419    0.5839803714089761 S
   0.3740674798953960    0.3284413982096424    0.0801524318715577 S
   0.6239421360973468    0.6651565681203830    0.9147424110830870 S
   0.0443577326210170    0.3741222458439095    0.9139955490817961 S
   0.3311710005164761    0.9588850772793764    0.9148103232471495 S
   0.6290147094088855    0.9641295126762435    0.4125508951474706 S
   0.3348957041574949    0.3737435674418765    0.4129881021306154 S
   0.0333114884542386    0.6608419992339237    0.4134948987945697 S
   0.2251627142963850    0.0444215553789969    0.3046409518269170 O
   0.8190654759102871    0.7742290347046522    0.3045268787873195 O
   0.9591538689998650    0.1799922873203202    0.3039068729818896 O
   0.2128020158498786    0.1827934957050637    0.8077125065396900 O
   0.9665367185013505    0.7825231544962692    0.8073541520463400 O
   0.8146578754777393    0.0249758694987839    0.8084767559389908 O
   0.8155600888936901    1.0016161007589512    0.7009035418206739 O
   0.1868789006746976    0.1871846181121083    0.7005878561459419 O
  -0.0010274789939554    0.8132298339696297    0.7001015159973686 O
   0.7862515453108078    0.8092835577055317    0.1980897272117433 O
   0.0217802956065601    0.2070420477376066    0.1970091985087065 O
   0.1856339715047813    0.9805548260329677    0.1978801489580557 O
   0.8954732411242153    0.3843192557492918    0.6360623869612758 O
   0.4998307384792471    0.1118375798997837    0.6379440500621559 O
   0.6227288731339474    0.5125811915582691    0.6358647587744229 O
   0.8601403508261298    0.5086659015535838    0.1347913326162768 O
   0.6452908181686997    0.1382622842748828    0.1346446004439611 O
   0.4860259186793219    0.3569904235338788    0.1342807464359433 O
   0.4514874656986387    0.2996832088687314    0.0274414880682718 O
   0.8402396726365974    0.5555969771218547    0.0246866856074951 O
   0.7040048392844123    0.1580101026499537    0.0239124689754011 O
   0.4441513301304268    0.1663925799741054    0.5299436824595413 O
   0.7174768421510415    0.5628591486953616    0.5315967667427204 O
   0.8469825897358474    0.2894690036698132    0.5317756717926548 O
   0.5212495588689181    0.6701909853335646    0.9693245590755638 O
   0.1490414944758423    0.4757169192513430    0.9689306001097869 O
   0.3261307655771603    0.8505794280455182    0.9698094432762377 O
   0.5245932514236366    0.8519778524704431    0.4674957710185591 O
   0.3296595346086215    0.4778066377971561    0.4678612991780813 O
   0.1478903412684213    0.6694872150626134    0.4679775950144249 O
   0.1131907850426665    0.6317723878455241    0.3611641867070863 O
   0.5172221672693991    0.8830937231107574    0.3609422845114990 O
   0.3574920937498220    0.4808847749369420    0.3607627665646547 O
   0.1371330078576528    0.4696348389580035    0.8607811778875688 O
   0.3395648945410920    0.8685470639013737    0.8617634575322076 O
   0.5302302507866467    0.6624604527919430    0.8611474600408120 O
   0.0354079635194852    0.8287882373627912    0.4140682826420311 O
   0.7938434974464847    0.9605193953596363    0.4125747366340387 O
   0.1692939750510966    0.2047623225297680    0.4139899244447987 O
   0.0322308898453724    0.1991284667462623    0.9189562921689207 O
   0.1652367709782257    0.9645467660296694    0.9193086322273595 O
   0.7989441234354512    0.8279573845243018    0.9197379698126172 O
   0.9865892111802387    0.1807637157780045    0.5974927210460327 O
   0.1907099263429506    0.0125650504355975    0.6004974024530085 O
   0.8177037151311186    0.8091246609673844    0.5976636766171234 O
   0.9992352097329302    0.8203375629633937    0.0904884609375909 O
   0.8279825535669483    0.0135172119062239    0.0892437300106346 O
   0.1940645801004754    0.1853576339547128    0.0893147498014410 O
   0.6936329889426243    0.1651910310335802    0.7498425551265684 O
   0.4743229593161530    0.3135377295931240    0.7482657002550784 O
   0.8352236054754032    0.5240755219121033    0.7460367970309805 O
   0.6862013032339145    0.5205338340577572    0.2411402153828457 O
   0.8350841629543692    0.3094885421378710    0.2409874836908067 O
   0.4759098228576630    0.1660642153497846    0.2400630378409086 O
   0.6366229711099487    0.5031475410196048    0.9174398570724737 O
   0.8687255480677641    0.3597555845759989    0.9157314252521863 O
   0.4890357788671880    0.1352332215891142    0.9189255748946745 O
   0.6543611263015052    0.1426419556889534    0.4212957710186394 O
   0.4927154971035619    0.3543798230393546    0.4194445179920975 O
   0.8565738168077232    0.5062801341369191    0.4230542803696968 O
   0.3696659567833759    0.5000794046692200    0.0743893044737085 O
   0.1333007795789255    0.6306454187059619    0.0714693011239312 O
   0.5006205880262719    0.8644009778422539    0.0717097665626392 O
   0.3475997881526702    0.8579808441582027    0.5672467593784194 O
   0.5131579484621439    0.6521930363446078    0.5705035771927648 O
   0.1423245929557833    0.4856121782835430    0.5703479834428564 O
   0.3175396511138865    0.8503004626655641    0.2572837669604043 O
   0.5290244089619919    0.6778984932397270    0.2590922658324044 O
   0.1503746828839497    0.4686518322325007    0.2569243698120254 O
   0.2972504266767262    0.4586458006735940    0.7535048250878470 O
   0.1579341456961937    0.6995746001796114    0.7530308133172972 O
   0.5410198917931756    0.8414486133302532    0.7529369939129991 O
