Na6 Mn4 P4 C4 O28
1.0
   8.3408561355728459    0.0000385777538109    0.0000175019734859
  -1.9290789421671288    8.2057671304718127    0.0000186342886472
  -3.0172471603909110   -3.8558957666025027    9.0652766853450082
Na Mn P C O
6 4 4 4 28
direct
   0.7528273862078774    0.7415057413959860    0.2344496233079984 Na
   0.4707520409080323    0.0196803549414814    0.2456493709021865 Na
   0.9792050418003556    0.4800320889562858    0.2292776138537064 Na
   0.5163246068224046    0.0049924170272946    0.7627598344205364 Na
   0.2338613793908569    0.2826956074943787    0.7525122138922968 Na
   0.7646703118842887    0.7631793693168797    0.7731023656582966 Na
   0.9498382468534199    0.1897997354651852    0.3489292750457205 Mn
   0.4449963641882924    0.6889758536348729    0.3519227162129308 Mn
   0.5619867346232355    0.3071318019835114    0.6494743887166166 Mn
   0.0600752611579641    0.8028673590281991    0.6507969327205032 Mn
   0.1979850711454470    0.9375216967799743    0.4267349755537581 P
   0.6990847335769650    0.4534672906931231    0.4275889062749406 P
   0.3009342519140290    0.5587455217599011    0.5753197142786466 P
   0.8050059589258287    0.0420291634649720    0.5702276568198007 P
   0.7772561759772486    0.0319373502148497    0.0822988546735369 C
   0.2828028400995948    0.5310259291959513    0.0856295645649073 C
   0.7175883055473522    0.4658662327445626    0.9170876795595291 C
   0.2209997282366721    0.9761253140697117    0.9158381880191648 C
   0.3085665147862220    0.0585774114389595    0.0488215982836745 O
   0.7935723619014932    0.5430673433598272    0.0541181800315591 O
   0.4282683048082134    0.6754168998222891    0.1505638098392913 O
   0.9229962871176279    0.1722475088412432    0.1452566028457269 O
   0.7284791943872143    0.9870198452343782    0.1813921969633240 O
   0.2372710745156691    0.4888391914767770    0.1874472418002040 O
   0.2926043253588179    0.8369503374113343    0.3377239687499847 O
   0.0814348206951541    0.0015819481067638    0.3248673512199882 O
   0.7781904888974500    0.3518502278307765    0.3293026738072433 O
   0.5935938356871545    0.5414525317373420    0.3355206533105685 O
   0.1504838423811480    0.4202981454107536    0.4301889028961127 O
   0.5730188264070742    0.3231338755966952    0.4657822641212168 O
   0.0709676314537611    0.8010231648518040    0.4626288141239048 O
   0.6609003618772680    0.8996295052771984    0.4190176322843454 O
   0.3374380441017062    0.0875918442882812    0.5734081007401727 O
   0.4384326234858275    0.6856332231712940    0.5393501394034936 O
   0.9375416380254060    0.1681413377029747    0.5339603386912773 O
   0.8432582837825552    0.5984231213594194    0.5764024995427243 O
   0.2302745770402868    0.6798005678852906    0.6743745874596022 O
   0.4019231910831761    0.4762484267245973    0.6701470622797390 O
   0.7169228303286416    0.1370727021747340    0.6633142060169192 O
   0.9086854660276524    0.9533605169030228    0.6621602178916023 O
   0.7668534707304140    0.5167304140795554    0.8222830623283218 O
   0.2605421421654806    0.0194504980890689    0.8107424131925527 O
   0.5741117102310599    0.3196489690879332    0.8494425285689857 O
   0.0778065987815890    0.8323306350713898    0.8540476683664837 O
   0.6956053654863235    0.9494565426681797    0.9460647543902414 O
   0.2023696988845338    0.4487081781290893    0.9517629214187407 O
