Na6 Zr6 Ti6 P18 O72
1.0
   8.7602119003416199   -0.0000013659313599   -0.0000040440889355
  -4.3801071331020882    7.5865657010403726   -0.0000020818189237
  -0.0000105097393187   -0.0000123146085786   22.7578631206059754
Na Zr Ti P O
6 6 6 18 72
direct
   0.0000009726070164    0.0000003082183512    0.4965465060360560 Na
  -0.0000046614409954   -0.0000027216636657    0.9958169838523653 Na
   0.6666595452079961    0.3333367589941960    0.8388410207804626 Na
   0.6666629531233731    0.3333296186583696    0.3289036554563424 Na
   0.3333370623689221    0.6666656476627044    0.1614316260479049 Na
   0.3333375367852723    0.6666627690901861    0.6712417793390894 Na
   0.0000019189928122   -0.0000026942506292    0.6486143984669960 Zr
  -0.0000137347891731    0.0000115109687519    0.1390533698320986 Zr
   0.6666639752417315    0.3333259383017820    0.6936022310599202 Zr
   0.6666687357743520    0.3333347202776302    0.4771968115416835 Zr
   0.3333378140147238    0.6666731883695751    0.5198490661061326 Zr
   0.3333263719955052    0.6666563448400906    0.3080034068254545 Zr
  -0.0000020724403131   -0.0000010654906814    0.3490531544566787 Ti
   0.0000112655131384   -0.0000010155664314    0.8576079654078943 Ti
   0.6666652959012838    0.3333378700603070    0.1845178194105631 Ti
   0.6666672304493544    0.3333243396903375    0.9779361036020152 Ti
   0.3333257373575154    0.6666696541160059    0.0196437611583927 Ti
   0.3333260940024288    0.6666690797821062    0.8177717036719732 Ti
   0.2934760664957067    0.0112517861917242    0.2464500607480042 P
   0.7177675216414471    0.7065178085905666    0.2464489186946641 P
   0.9887395979680415    0.2822309620875070    0.2464485029650632 P
   0.2849192266532111    0.2926706020518357    0.7571843171894749 P
   0.0077509814428365    0.7150783405450344    0.7571844160031509 P
   0.7073316347294107    0.9922479387506695    0.7571880280147456 P
   0.9579542488832758    0.3353045437048495    0.5853789432538473 P
   0.3773492750845822    0.0420437543486420    0.5853787507058573 P
   0.6646955905515457    0.6226491112339785    0.5853791360151148 P
   0.9547194273676072    0.6098373674030703    0.0802323045213916 P
   0.6551096968364269    0.0452785704138557    0.0802328444846451 P
   0.3901653967500480    0.3448850270884761    0.0802314116471435 P
   0.6216373603162465    0.6679291431846971    0.9186473147370929 P
   0.0462863553746245    0.3783599945398110    0.9186490208302734 P
   0.3320720269911525    0.9537117178430470    0.9186459211475173 P
   0.6329052532916822    0.9562015241811521    0.4131476780236699 P
   0.3232951043799832    0.3670929587318156    0.4131507838950725 P
   0.0437985695060576    0.6767015743858940    0.4131482528646633 P
   0.1976359222471142    0.0268069998233920    0.3016595254221875 O
   0.8291799173454223    0.8023659103710938    0.3016546043644442 O
   0.9731974211226202    0.1708142362227952    0.3016500528890221 O
   0.1883103432840093    0.1767573650522667    0.8112734211409841 O
   0.9884440188680808    0.8116867674890890    0.8112724149083548 O
   0.8232309792986807    0.0115589274040297    0.8112799271653514 O
   0.7920080997437744    0.9724203970179840    0.7004073140353410 O
   0.1804253692587405    0.2080054573089518    0.7004018610856424 O
   0.0275822013843424    0.8195728097515902    0.7004017122913503 O
   0.8014737284069269    0.8150905741842839    0.1906419468069764 O
   0.0136034238992178    0.1985343152086041    0.1906373393648549 O
   0.1849020463004652    0.9863967436233846    0.1906452406026021 O
   0.8666656898777747    0.3485855586663753    0.6415661025624189 O
   0.4819165428636339    0.1333210159890788    0.6415678293697973 O
   0.6514120281238819    0.5180794254657183    0.6415662663277067 O
   0.8626562630415411    0.5024477430022226    0.1364452248385090 O
   0.6397918272556730    0.1373431685220529    0.1364442564153441 O
   0.4975543820401411    0.3602074662085299    0.1364439841835344 O
   0.4824785590295375    0.3264956993202689    0.0251225589460056 O
   0.8440154377526471    0.5175162815512820    0.0251242001396141 O
   0.6734925607573439    0.1559758741781073    0.0251222724070545 O
   0.4684633236625416    0.1470513455242687    0.5295718843013989 O
   0.6785984854524432    0.5315440851812876    0.5295708482755582 O
   0.8529459762849103    0.3214117057321575    0.5295716196885316 O
   0.5297601310572132    0.6905456750107166    0.9737712043789670 O
   0.1607825478666930    0.4702359285811761    0.9737718455781795 O
   0.3094539354727548    0.8392117535730397    0.9737677890248639 O
   0.5447981209471413    0.8489984207683118    0.4695153363028464 O
   0.3041985083546502    0.4552006361908754    0.4695154220157874 O
   0.1510049546726348    0.6957977455492317    0.4695146792772407 O
   0.1316198039496179    0.6502116962058074    0.3588393295844092 O
   0.5185821996023277    0.8683763978308391    0.3588406875761599 O
   0.3497914517834985    0.4814132959583195    0.3588415549946921 O
   0.1379057262247182    0.4929623203256551    0.8639668327579618 O
   0.3550578201050603    0.8621044545448637    0.8639623489556603 O
   0.5070477026066642    0.6449491430169449    0.8639627565269625 O
   0.0312164376811972    0.8452501590414666    0.4063682719072398 O
   0.8140336226956136    0.9687826802941226    0.4063649058548326 O
   0.1547448349818445    0.1859689814253050    0.4063666881101026 O
   0.0269717612694231    0.1933619837574098    0.9132663073176357 O
   0.1663927060435862    0.9730359296319230    0.9132637864779590 O
   0.8066439609864368    0.8336074752832718    0.9132659510300493 O
   0.9760014666398297    0.1691685569331189    0.5882191888891209 O
   0.1931662251025083    0.0239949668061479    0.5882184025435857 O
   0.8308314409704831    0.8068361769252854    0.5882190265364421 O
   0.9745505651035898    0.7954421459393483    0.0826488843840253 O
   0.8208843450812799    0.0254424859481623    0.0826468859514513 O
   0.2045561003065080    0.1791085996940969    0.0826493993397303 O
   0.6900945474747858    0.1591981154600105    0.7538489580544966 O
   0.4691027531363171    0.3099024184510263    0.7538516336090194 O
   0.8407962630809188    0.5308958959865115    0.7538509651396649 O
   0.7062105966274734    0.5249551169640140    0.2415570731444605 O
   0.8187369021429265    0.2937894099219513    0.2415606972972995 O
   0.4750443762505311    0.1812534309341625    0.2415571769288233 O
   0.6418500746553345    0.5025255079782056    0.9238046401917025 O
   0.8606703529320721    0.3581451964351463    0.9238057460881320 O
   0.4974735213398508    0.1393247672287236    0.9238032020101841 O
   0.6583574684803267    0.1432221044241613    0.4183275749859832 O
   0.4848594452334888    0.3416349072812624    0.4183294252172151 O
   0.8567763735073217    0.5151378701455512    0.4183300317778392 O
   0.3723789486234896    0.5113771954731956    0.0763011820436539 O
   0.1389999140204164    0.6276230711817782    0.0762983112290923 O
   0.4886185120624898    0.8610000159405693    0.0763009421460900 O
   0.3597424440832381    0.8583641432759935    0.5822626528438554 O
   0.4986247284439470    0.6402557706722384    0.5822627320259408 O
   0.1416310871684609    0.5013757773518314    0.5822623664364674 O
   0.3194062310552148    0.8499593011159758    0.2511796148197831 O
   0.5305496270064274    0.6805864910325503    0.2511804721612595 O
   0.1500381695689677    0.4694482976920164    0.2511785258040310 O
   0.3045604700094278    0.4771484145037453    0.7627972184291165 O
   0.1725844446825037    0.6954329129060839    0.7627981551904884 O
   0.5228490142746215    0.8274122735858124    0.7627965556046691 O
