Na6 Ti6 In6 P12 S6 O72
1.0
   8.7391524581844777    0.0000384620315866    0.0000311426201689
  -4.3695426062708380    7.6043463744580517    0.0434049300038686
   0.0000812628534211    0.1283128751113779   22.6444237269595945
Na Ti In P S O
6 6 6 12 6 72
direct
   0.9810349223176039    0.9926208284057826    0.5015067425030924 Na
   0.0115911170276856    0.9923174230375781    0.0015563454702968 Na
   0.6477017731453421    0.3259537892594353    0.8348398820745168 Na
   0.6782580489206822    0.3256504806783714    0.3348894898702476 Na
   0.3143679139794039    0.6592876446251540    0.1681736983946046 Na
   0.3449242693443257    0.6589842487795046    0.6682232750298750 Na
   0.0050677477874975    0.0064949503839036    0.3534175440378298 Ti
   0.0014117700193937    0.0064863504399070    0.8534146046844417 Ti
   0.6717344564658577    0.3398281588329615    0.6867507201468879 Ti
   0.6680783525945214    0.3398193330701363    0.1867477183208819 Ti
   0.3384012898366660    0.6731617713887501    0.0200842805152541 Ti
   0.3347450622926023    0.6731530533756782    0.5200812959539217 Ti
   0.9941368586011017    0.0028944331390780    0.6479058596055692 In
   0.0087141155517416    0.0029370498979072    0.1479130568102106 In
   0.6608036290901428    0.3362278905083268    0.9812391427977784 In
   0.6753808148919165    0.3362705666170295    0.4812463968681847 In
   0.3274702896021227    0.6695610585093906    0.3145725642947554 In
   0.3420473352739094    0.6696037628547521    0.8145797958775064 In
   0.2998949181172025    0.0096238172585027    0.2495808678877259 P
   0.9927227078126005    0.2889321991665177    0.2493168463475123 P
   0.2960388558182102    0.2889103553340482    0.7493183149951486 P
   0.7097161011300041    0.0095411204153624    0.7496046830671700 P
   0.9665616851861932    0.3429569653447728    0.5829140785750277 P
   0.6593893762228917    0.6222656255206487    0.5826501226616587 P
   0.9627055429113019    0.6222436896807930    0.0826515554265923 P
   0.3763827145793413    0.3428743430061331    0.0829379301365306 P
   0.6332283159183877    0.6762906753761665    0.9162475959889546 P
   0.3260558376875283    0.9555989720124038    0.9159836155187558 P
   0.6293721538908066    0.9555771498028350    0.4159850278623813 P
   0.0430493562440222    0.6762079400496049    0.4162714478441243 P
   0.7114236929639893    0.7039769380769497    0.2509109657598181 S
   0.9926078385853717    0.7040681158834892    0.7509405117344065 S
   0.3780903724943907    0.0373102343512879    0.5842442085608998 S
   0.6592746802706594    0.0374014426033333    0.0842737810133484 S
   0.0447568650314817    0.3706435529417975    0.9175777632235282 S
   0.3259410088473494    0.3707347019793081    0.4176073470639857 S
   0.1960390844300829    0.0254272848691723    0.3043995470125371 O
   0.8188094604715656    0.7943780766273585    0.3036949943046486 O
   0.9728111290013062    0.1707193694254851    0.3055071921859275 O
   0.1978233843727537    0.1708064947519463    0.8055470671382985 O
   0.9756372645654456    0.7944354838871175    0.8037418789167874 O
   0.8294480977840004    0.0253861377060952    0.8044081634227506 O
   0.7784970600308040    0.9703513692534422    0.6936841389057457 O
   0.1934460574493727    0.2080687514123981    0.6935967302455918 O
   0.0234171357169032    0.8054080351756459    0.6960729157673916 O
   0.7820716521826314    0.8051905598550971    0.1960226300737619 O
   0.0144144209759974    0.2081703604596889    0.1935588899819722 O
   0.1920168909341316    0.9705289783309743    0.1936363163703408 O
   0.8627053095584694    0.3587596968176407    0.6377327290089635 O
   0.4854760587874489    0.1277117225509956    0.6370282273385864 O
   0.6394784035677051    0.5040527077233908    0.6388403810871310 O
   0.8644898915188410    0.5041399686160161    0.1388803255318180 O
   0.6423051068451536    0.1277694859473485    0.1370750701411626 O
   0.4961148046009174    0.3587189486015359    0.1377413424413445 O
   0.4451641782810578    0.3036859891678232    0.0270172621564941 O
   0.8601137147576041    0.5414017225474518    0.0269299136505924 O
   0.6900831396242705    0.1387407841815296    0.0294061121342428 O
   0.4487387182647921    0.1385228234031846    0.5293557975806683 O
   0.6810798322435463    0.5415033215529630    0.5268920806241225 O
   0.8586842412018971    0.3038629957231706    0.5269694701752947 O
   0.5293724346832241    0.6920936395086004    0.9710663846079671 O
   0.1521418892541737    0.4610448466237710    0.9703618545220352 O
   0.3061448925073598    0.8373864941718018    0.9721740130223484 O
   0.5311566438109210    0.8374738247712136    0.4722138794975536 O
   0.3089711961188912    0.4611022577098872    0.4704087192459985 O
   0.1627809972112522    0.6920525075098211    0.4710749894431520 O
   0.1118310685162165    0.6370192878775193    0.3603508768362167 O
   0.5267794945923127    0.8747350726087851    0.3602634986702771 O
   0.3567497323174265    0.4720745898254132    0.3627397591721300 O
   0.1154053152532737    0.4718572551143204    0.8626893818859810 O
   0.3477462297592270    0.8748362730514769    0.8602256488962490 O
   0.5253503125156143    0.6371963290467064    0.8603031396547450 O
   0.0434991367465751    0.8543442782702642    0.4102360507715402 O
   0.8133981633438715    0.9662839859064258    0.4107468819497034 O
   0.1556078658168761    0.1992712307431111    0.4134559229428565 O
   0.0435137478431587    0.1991070290654544    0.9134624241160758 O
   0.1528014101241051    0.9663915629353882    0.9107694965283136 O
   0.8108730181938211    0.8543197211688133    0.9102200514475784 O
   0.0088524928160338    0.1938905718024405    0.5884079305708291 O
   0.1944295523724436   -0.0006185517638831    0.5894850077892828 O
   0.8196570996844915    0.8072247826867778    0.5880614105181525 O
   0.9876212427835916    0.8073004476109813    0.0880232938691050 O
   0.8048969486514782   -0.0006832834137057    0.0895388972618624 O
   0.1850085484770177    0.1939905594113909    0.0884441475531475 O
   0.7101661541524857    0.1876775506376423    0.7435691794160819 O
   0.4800649744927794    0.2996175512822492    0.7440800721759516 O
   0.8222749147159388    0.5326044934053533    0.7467890924107337 O
   0.7101799913144156    0.5324400928418395    0.2467956044262915 O
   0.8194680318294280    0.2997244676991503    0.2441026069983575 O
   0.4775396863313544    0.1876527537946826    0.2435532190053147 O
   0.6755190540038090    0.5272244264888762    0.9217414509675278 O
   0.8610956607562967    0.3327138272768171    0.9228183792013391 O
   0.4863234496727994    0.1405582124103791    0.9213948011801080 O
   0.6542886000501585    0.1406343027361513    0.4213566608544186 O
   0.4715633426084285    0.3326503186905019    0.4228723809131317 O
   0.8516750542062175    0.5273245905834111    0.4217775963988795 O
   0.3768324762139965    0.5210106421227282    0.0769026010305626 O
   0.1467319486651003    0.6329511297421893    0.0774135783925899 O
   0.4889415804184754    0.8659378033984495    0.0801225767396036 O
   0.3768462455648446    0.8657730673422497    0.5801291578841195 O
   0.4861348256417238    0.6330579735300219    0.5774360534567576 O
   0.1442065113115971    0.5209859661165095    0.5768866743927037 O
   0.3421856470131940    0.8605573656271075    0.2550747469513415 O
   0.5277626407615198    0.6660474622442083    0.2561518186851939 O
   0.1529899900429366    0.4738915569809564    0.2547282343035423 O
   0.3209551719694196    0.4739673076840389    0.7546901239820966 O
   0.1382303931458027    0.6659837888431445    0.7562056907130004 O
   0.5183417041690962    0.8606578470930576    0.7551110386474887 O
