Na24 Co4 O16
1.0
  -0.0000140000000000    0.0000240000000000    5.8948369999999999
   7.6569419999999999   -0.0001580000000000   -0.0000180000000000
  -0.0002740000000000   13.2625299999999999    0.0000520000000000
Na Co O
24 4 16
direct
   0.5364049999999999    0.7136120000000000    0.4287990000000000 Na
   0.5364050000000000    0.2136120000000000    0.9287990000000002 Na
   0.5364059999999999    0.9999930000000000    0.1424120000000000 Na
   0.5364060000000000    0.4999930000000000    0.6424120000000000 Na
   0.0364030000000000    0.2136180000000000    0.0712130000000000 Na
   0.0364030000000000    0.7136179999999998    0.5712130000000000 Na
   0.5364030000000000    0.2863710000000000    0.4287980000000001 Na
   0.5364030000000000    0.7863709999999999    0.9287980000000000 Na
   0.0364050000000000    0.4999949999999999    0.3575940000000000 Na
   0.0364050000000000    0.9999950000000000    0.8575940000000001 Na
   0.0364060000000000    0.7863859999999999    0.0712090000000000 Na
   0.0364060000000000    0.2863860000000000    0.5712090000000000 Na
   0.8681680000000001    0.8058320000000000    0.2686180000000000 Na
   0.8681679999999999    0.3058320000000000    0.7686180000000001 Na
   0.8681470000000001    0.9999959999999998    0.4627770000000000 Na
   0.8681470000000001    0.4999960000000000    0.9627770000000001 Na
   0.8681459999999999    0.1941520000000000    0.2686180000000001 Na
   0.8681460000000000    0.6941519999999999    0.7686180000000001 Na
   0.3681470000000000    0.3058359999999999    0.2313910000000000 Na
   0.3681470000000000    0.8058359999999999    0.7313910000000000 Na
   0.3681460000000000    0.4999979999999999    0.0372330000000000 Na
   0.3681460000000000    0.9999979999999999    0.5372330000000001 Na
   0.3681680000000000    0.6941569999999999    0.2313930000000000 Na
   0.3681680000000000    0.1941570000000000    0.7313930000000000 Na
   0.2582900000000000    0.4999980000000000    0.8333380000000001 Co
   0.7582900000000001    0.4999939999999999    0.1666700000000000 Co
   0.2582900000000000    0.9999979999999999    0.3333380000000001 Co
   0.7582900000000001    0.9999939999999999    0.6666700000000000 Co
   0.5952830000000000    0.9999689999999999    0.3333350000000001 O
   0.5952829999999999    0.4999689999999999    0.8333350000000002 O
   0.0952830000000000    0.5000119999999999    0.1666830000000000 O
   0.0952830000000000    0.0000120000000000    0.6666830000000001 O
   0.1455540000000000    0.7840959999999999    0.4053140000000001 O
   0.1455540000000000    0.2840960000000000    0.9053140000000001 O
   0.1455690000000000    0.0000100000000000    0.1893970000000000 O
   0.1455690000000000    0.5000100000000000    0.6893970000000001 O
   0.1455390000000000    0.2159020000000000    0.4053050000000001 O
   0.1455390000000000    0.7159019999999998    0.9053050000000001 O
   0.6455390000000000    0.2840920000000000    0.0947010000000000 O
   0.6455390000000000    0.7840919999999999    0.5947010000000001 O
   0.6455540000000000    0.4999810000000000    0.3106090000000000 O
   0.6455540000000000    0.9999809999999998    0.8106090000000001 O
   0.6455689999999999    0.7158989999999998    0.0946940000000000 O
   0.6455689999999999    0.2158990000000000    0.5946939999999999 O
