Na4 V4 Si8 O24
1.0
   5.2394610000000004   -0.1058610000000000    1.2267699999999999
   1.4674100000000001    6.4186930000000002    0.5848430000000000
  -5.3793470000000001    0.2984210000000000   11.9906910000000000
Na V Si O
4 4 8 24
direct
   0.1001540000000000    0.2990880000000000    0.3504130000000000 Na
   0.6004050000000000    0.2989860000000000    0.8504639999999999 Na
   0.3998240000000001    0.7008700000000001    0.1495730000000000 Na
   0.8995730000000000    0.7009809999999999    0.6495219999999999 Na
   0.2971970000000000    0.9056860000000000    0.5471770000000000 V
   0.2028319999999999    0.0942820000000000    0.9528269999999999 V
   0.7974080000000001    0.9053769999999998    0.0472400000000000 V
   0.7026350000000000    0.0947160000000000    0.4527760000000000 V
   0.4478740000000000    0.2016680000000000    0.1909330000000000 Si
   0.9479360000000000    0.2017630000000000    0.6909299999999999 Si
   0.8579190000000001    0.3817920000000000    0.1009219999999999 Si
   0.3578600000000000    0.3819859999999999    0.6008590000000000 Si
   0.6420590000000000    0.6182950000000002    0.3990690000000000 Si
   0.1421300000000000    0.6179880000000000    0.8991450000000000 Si
   0.0521180000000000    0.7983239999999999    0.3090640000000000 Si
   0.5520659999999999    0.7982089999999998    0.8090769999999999 Si
   0.0500000000000001    0.9634200000000001    0.4017050000000000 O
   0.5501140000000000    0.9633359999999999    0.9018299999999999 O
   0.4500080000000000    0.0365500000000000    0.0982970000000000 O
   0.9498870000000000    0.0366400000000000    0.5981759999999999 O
   0.6298840000000000    0.8036350000000000    0.4816130000000000 O
   0.1301960000000000    0.8033810000000001    0.9817880000000000 O
   0.8701169999999999    0.1964320000000000    0.0183859999999999 O
   0.3698040000000000    0.1966240000000000    0.5182070000000000 O
   0.7472250000000001    0.6176700000000001    0.0538980000000000 O
   0.2473240000000000    0.6178839999999999    0.5538069999999999 O
   0.7528030000000000    0.3824120000000000    0.4461019999999999 O
   0.2526729999999999    0.3820820000000000    0.9461889999999999 O
   0.9981970000000002    0.8924619999999999    0.1911259999999999 O
   0.4976070000000001    0.8924399999999999    0.6911440000000000 O
   0.5018030000000000    0.1075730000000000    0.3088810000000000 O
   0.0023999999999999    0.1075440000000000    0.8088620000000000 O
   0.1531310000000000    0.3581060000000000    0.1723230000000000 O
   0.6529779999999999    0.3579260000000000    0.6723840000000000 O
   0.8403900000000000    0.6552620000000000    0.3209359999999999 O
   0.3403940000000000    0.6551879999999999    0.8210540000000000 O
   0.6596150000000001    0.3447310000000000    0.1790539999999999 O
   0.1595929999999999    0.3447879999999999    0.6789469999999999 O
   0.3468490000000000    0.6418680000000000    0.3276789999999999 O
   0.8470179999999999    0.6420340000000000    0.8276169999999999 O
