Na8 Fe4 C8 S2 O32
1.0
  -0.0162619609328067    7.1158890695226056    6.9586655339960402
   6.9369922711694159    0.0426344553886530    6.8993143915197512
   6.9743046712844663    7.0937987217427834    0.0056444737232221
Na Fe C S O
8 4 8 2 32
direct
   0.9197943163979885    0.3422054903081246    0.3201649321749066 Na
   0.0910317936897720    0.0774184604254146    0.6518118261760533 Na
   0.6207209957693373    0.7258891675274234    0.0907758892081898 Na
   0.4566974193776419    0.2044937351436409    0.9439869501641430 Na
   0.9051663494293428    0.9212296456059774    0.2991003823370691 Na
   0.9099330418625268    0.3298979160067930    0.9162339244196462 Na
   0.0810699508555927    0.6820041999563007    0.6653963235075614 Na
   0.3231254766622279    0.9070657347868821    0.9121578617192894 Na
   0.4990220766368962    0.4975033791388997    0.0048664716202229 Fe
   0.5031369064914093    0.9991678199045292    0.4971273764779944 Fe
   0.4990898668535579    0.4978850196702456    0.5057707903802134 Fe
   0.0019864716152833    0.5016062494445389    0.4970729191215725 Fe
   0.6407918125627284    0.2905772919607086    0.2854318714575212 C
   0.2882537372529465    0.2833178835536225    0.2918696621315912 C
   0.2889661400252057    0.6408704786147830    0.2900109593564474 C
   0.2819318343330574    0.2853879892367596    0.6430763649817386 C
   0.7159586341892679    0.3620037207768486    0.7112410917346871 C
   0.7156316999271106    0.7092159582423244    0.3631186149260272 C
   0.3619300950696941    0.7071120452833001    0.7194572323445192 C
   0.7145449318076339    0.7151753652950741    0.7127659898315164 C
   0.1272178076507443    0.1169545319258530    0.1210034762607546 S
   0.8589109530408193    0.8999060046573318    0.8672636090627883 S
   0.3086232116971239    0.0288572115937917    0.0758786524221958 O
   0.0630528335263534    0.0683051878785029    0.0475502715049783 O
   0.0903906516175042    0.3017246823290239    0.0500088598403101 O
   0.0412887459387234    0.0669821473943850    0.3034625552176540 O
   0.6419113750258340    0.1459324694472292    0.3136752560427559 O
   0.4022263320351762    0.3122532606959805    0.1480778900376130 O
   0.6466594013854448    0.4045490146723086    0.1396147770525055 O
   0.3159523581565410    0.1416645937643881    0.4073424282068766 O
   0.1427945096989310    0.3942007525679376    0.3198565540881095 O
   0.6420294264979883    0.3204047120866420    0.3972198629954777 O
   0.3196170967343850    0.6457049345171060    0.1446506064807964 O
   0.3920021379151036    0.1401338672416185    0.6474200753922863 O
   0.6897373753701024    0.5954858923138704    0.3552934782868571 O
   0.8624116560969636    0.3532085801921713    0.5980826785095992 O
   0.4014965958660067    0.6365282220488492    0.3218435732142638 O
   0.1368977462045497    0.3134352744609434    0.6471643497392142 O
   0.6014523900320385    0.3643331814866027    0.6836534489446420 O
   0.8577770399748588    0.6793787400297379    0.3637168748031081 O
   0.3092111934122810    0.4018666431150620    0.6422279192654424 O
   0.1421424415870836    0.6466449497582610    0.4018261624130413 O
   0.6883911237116666    0.3627843451807691    0.8529280250849520 O
   0.6029656889690144    0.8507480247017565    0.3646754106789798 O
   0.3537914558929871    0.6787080705408772    0.6101569696225795 O
   0.8592437527340737    0.6001956811340482    0.6885903492718085 O
   0.6874402615527030    0.8522270187488203    0.5938329711859179 O
   0.3696601379865211    0.5929786733047421    0.8587383954748460 O
   0.3554923159824159    0.8562412089817792    0.6889632486733909 O
   0.6006433998308147    0.6903676538228699    0.8588994858536033 O
   0.8971080177723230    0.7135264049644872    0.9357226071807391 O
   0.9312002267810654    0.9499752217777666    0.6813418925355577 O
   0.9319015471620241    0.9545058958318888    0.9228367184178310 O
   0.6754144097832915    0.9757083712449640    0.9236520039221511 O
