Na12 Mg2 Ti6 Si4 P8 O48
1.0
  12.8203162819195153   -0.0003448370691504   -8.5676876949797958
  -0.0180050523763999    8.8751967176475510   -0.0265478854843738
  -0.1613736443695001   -0.0273003645602856    8.8781106033493753
Na Mg Ti Si P O
12 2 6 4 8 48
direct
   0.2525389160736135    0.7445920784191691    0.9979726732333616 Na
   0.7480333912414467    0.7425675476943865    0.4904129383743565 Na
   0.7525389499302685    0.2445920433151378    0.9979727006702256 Na
   0.2480333963983747    0.2425675320097012    0.4904129402682875 Na
   0.5149769695955054    0.1086301740266603    0.7794418677483297 Na
   0.4958948726282634    0.8789489238128622    0.2340726997260329 Na
   0.0149769633979906    0.6086302175762257    0.7794418336342234 Na
   0.9958948800135717    0.3789488713682881    0.2340727065528958 Na
   0.8052913497084011    0.9346325655205616    0.2406202117665232 Na
   0.1791708210850720    0.0658039980575507    0.7635599879014580 Na
   0.3052913748687434    0.4346326161419895    0.2406202407553153 Na
   0.6791708070647297    0.5658040359939839    0.7635600205603290 Na
   0.1043000146676045    0.2471530843237918    0.0597425727493401 Mg
   0.6043000267235719    0.7471531958197248    0.0597425896483764 Mg
   0.1020346235526244    0.7458987238668311    0.5569611171295837 Ti
   0.8933964628343886    0.7519047023453231    0.9387645786718742 Ti
   0.8984485405165050    0.2540307768858541    0.4444952720093049 Ti
   0.6020345641472872    0.2458986591430757    0.5569610335751132 Ti
   0.3933965115191705    0.2519046262813731    0.9387645596059683 Ti
   0.3984485635761833    0.7540307305837932    0.4444952853369495 Ti
   0.6495387718325061    0.8984711064638237    0.7562526271997567 Si
   0.3529139934634887    0.1006611019684914    0.2490333741087989 Si
   0.1495387289071131    0.3984710980686329    0.7562525917652750 Si
   0.8529139770055515    0.6006610557102788    0.2490333632026382 Si
   0.9939140222461726    0.9588487603127336    0.7393462912496513 P
   0.0029962170237635    0.0392616141555536    0.2597063264723127 P
   0.4939138055983763    0.4588487141901254    0.7393460994137998 P
   0.5029961795651486    0.5392616875598975    0.2597062387217092 P
   0.3568713420913223    0.8929336245268192    0.7608925090714967 P
   0.6445634135021404    0.1163167653075895    0.2445032302926473 P
   0.8568716629022728    0.3929334351959062    0.7608930133974366 P
   0.1445633910479019    0.6163168049322914    0.2445032577715979 P
   0.1549207068700734    0.5782555064336058    0.7170967111724135 O
   0.8547757011119306    0.5697322425985724    0.7517494957899794 O
   0.8547043767752578    0.4157627294285645    0.2704214279323603 O
   0.1493208682510072    0.4438554078011496    0.2607656643095668 O
   0.6549206330512528    0.0782554811620027    0.7170965642644981 O
   0.3547757279745616    0.0697321788715142    0.7517495513393764 O
   0.3547044298477036    0.9157627671152604    0.2704214338796609 O
   0.6493208365217822    0.9438551759687475    0.2607655754644462 O
   0.4241792832670487    0.5436120989999647    0.5527552185739338 O
   0.5632416056466589    0.5684933247352154    0.8939493972888070 O
   0.5643191346433600    0.4526851163889418    0.4420873039428111 O
   0.4402035152683995    0.4214134386759865    0.0975981640556080 O
   0.9241793144452357    0.0436120211662139    0.5527551747363086 O
   0.0632414078424527    0.0684928758601018    0.8939488887207417 O
   0.0643192603308823    0.9526850862465682    0.4420875496787272 O
   0.9402034887433754    0.9214132598862851    0.0975982774019847 O
   0.2537219487098137    0.8416871563253912    0.7370059578253129 O
   0.7475184690242869    0.8077365438445075    0.7703680520751575 O
   0.7418417526576341    0.1768442678913293    0.2540639547830322 O
   0.2606773941135207    0.1879755397023470    0.2425152771288413 O
   0.7537218564341682    0.3416872194569964    0.7370058623514791 O
   0.2475185117595600    0.3077365639014140    0.7703681493687956 O
   0.2418417027839017    0.6768443287462769    0.2540639414176405 O
   0.7606773070882533    0.6879756659559410    0.2425152224889959 O
   0.3620091095909702    0.8414654654057264    0.5953933813024754 O
   0.6471608403302790    0.8928898189361781    0.9339868462589326 O
   0.6430689110243878    0.1820740120265519    0.4054578650807336 O
   0.3576451483697262    0.1264625446682089    0.0672429333241547 O
   0.8620091292026566    0.3414655269864527    0.5953934051311567 O
   0.1471608494170865    0.3928898500654590    0.9339867747211573 O
   0.1430689074047619    0.6820741189096085    0.4054579070564134 O
   0.8576451679148398    0.6264624850839885    0.0672429400523089 O
   0.4522325523152632    0.8341443897134249    0.9387786534796730 O
   0.5399059389237079    0.8158300968791649    0.5775682372321521 O
   0.5425743363681882    0.1704271031007885    0.0627630956473750 O
   0.4676975546426703    0.1674307571224550    0.4232632371675598 O
   0.9522323661417443    0.3341444624620913    0.9387783792961089 O
   0.0399059605449716    0.3158300619042618    0.5775682601061559 O
   0.0425743569506918    0.6704271586839097    0.0627631079951892 O
   0.9676975839570069    0.6674308017285020    0.4232632732767946 O
   0.0729104631903522    0.8476263630367887    0.7346678761682386 O
   0.9194102980124450    0.8564779493537807    0.7600488330301896 O
   0.9145614845631843    0.1360525390320738    0.2491762617506096 O
   0.0764619696141591    0.1412440832936812    0.2439968741230412 O
   0.5729103150720292    0.3476265177685187    0.7346678080328592 O
   0.4194102670194099    0.3564780097621910    0.7600488135983475 O
   0.4145615089360415    0.6360525860918512    0.2491762636067860 O
   0.5764620073191491    0.6412443611253920    0.2439967349775125 O
