Na8 Fe4 P4 C4 O28
1.0
   6.5448803082578380    0.0003364637353855    0.0008403448821938
   0.1323124349175651   10.3500395962475444    0.0005809564079718
   0.0965139602813508    5.0959566485557461    9.0699720992254651
Na Fe P C O
8 4 4 4 28
direct
   0.2614003090890221    0.3409920879181606    0.5777448459260927 Na
   0.2631430972676338    0.8428754624699537    0.0757067090763587 Na
   0.0170855859576963    0.9944969940316477    0.7383076990922682 Na
   0.4761216917135687    0.4932680192844228    0.2372772338312295 Na
   0.9849777332288332    0.5078260576721519    0.7583943504944677 Na
   0.9844985155261147    0.0074707980458611    0.2580910085929672 Na
   0.7151251454719242    0.1585193677814852    0.9206603374511950 Na
   0.7371506157880425    0.6579434000576270    0.4235859476857360 Na
   0.7495576258012437    0.7162818127595560    0.9382129883459265 Fe
   0.7499043188513912    0.2164730118628348    0.4379101883216062 Fe
   0.2638675421467012    0.7831767704292439    0.5622384817633597 Fe
   0.2611929968666363    0.2832450735101197    0.0626629494417399 Fe
   0.2495475935114166    0.6457872391393320    0.9291200636789415 P
   0.2474206962841658    0.1460743702028709    0.4295006811329386 P
   0.7548269403785125    0.8534724310483006    0.5713883106237818 P
   0.7542484355450879    0.3535048098097051    0.0710794378831894 P
   0.7503929792102099    0.3300481102378693    0.6030802945559084 C
   0.7585243744369374    0.8288990773887456    0.1042707234766304 C
   0.2370662961863067    0.1708503784816635    0.8968217061040523 C
   0.2509998528773625    0.6706642655188604    0.3962277666419151 C
   0.2267825883770350    0.1163252540215142    0.8113004424845662 O
   0.2608617665397618    0.6163671480616694    0.3102666637356715 O
   0.7627519638701333    0.9117594744303066    0.9599976453341764 O
   0.7258392641131133    0.4116064678147392    0.4598967569257374 O
   0.7511815074226362    0.1861693529583869    0.6528121771919161 O
   0.7365089566782972    0.6863510727065674    0.1525037638035714 O
   0.0649641702169414    0.7320417996957326    0.9464059482069715 O
   0.4410994444452503    0.7152432074710140    0.9568828768074703 O
   0.0599731239050582    0.2203798607590037    0.4608741752106291 O
   0.4360912679376804    0.2276446291500315    0.4429471518431502 O
   0.7573180509489805    0.8442346122270182    0.7237999841806846 O
   0.7436879635276342    0.3445942043289718    0.2233439924056904 O
   0.2475072708090140    0.9790638785778050    0.5484755426291952 O
   0.2456564697484680    0.4790161145195869    0.0487395949404606 O
   0.7687351600156331    0.5200444689182709    0.9517347505086354 O
   0.7666421108503362    0.0201979692317662    0.4520074487421632 O
   0.2460788190642426    0.6553799667291520    0.7766571615842608 O
   0.2372721554064602    0.1565258953134084    0.2768381753082453 O
   0.5661457471213178    0.7793183415472740    0.5482311075039062 O
   0.9417398833920217    0.7706340989337283    0.5508701656238542 O
   0.9399793172417006    0.2686811636473131    0.0536611653007632 O
   0.5641166138438719    0.2815749717831962    0.0450695147109692 O
   0.2430953068899902    0.3143663096681845    0.8478296412302655 O
   0.2470848352758057    0.8142697353467616    0.3476007939798021 O
   0.2488260654222300    0.5878450783709844    0.5403997816884626 O
   0.2488032074880743    0.0881854868381938    0.0407762256220673 O
   0.7712420328797155    0.3854892090111969    0.6870526217331223 O
   0.7729538408288184    0.8821505801911462    0.1905197824051418 O
