Na9 Sc9 Nb3 P15 S3 O72
1.0
   8.8755388165351388   -0.0026276927021975   -0.0065544801262303
  -4.4400404529489483    7.6683041854793306    0.0015990629067023
  -0.0165238753244787   -0.0052705343771502   22.9321268808163943
Na Sc Nb P S O
9 9 3 15 3 72
direct
   0.6444098092176870    0.6420618138753709    0.7415399840375142 Na
   0.3036100493628658    0.9619755849046043    0.0888529960520920 Na
   0.3353201998952614    0.0276127095886852    0.4054048866617447 Na
   0.9633094609019982    0.9956291703724119    0.4998296311188456 Na
   0.9791186216405218   -0.0019254929555672    0.9979061009834070 Na
   0.6616829249836416    0.3020347701621998    0.8298423311682550 Na
   0.6855456701319179    0.3517516536233591    0.3283120395222439 Na
   0.3328853545219137    0.6459276922824203    0.1664120873044444 Na
   0.2906899145969680    0.6523133091739582    0.6627320619146118 Na
   0.0018411451454722    0.0029580476011823    0.3516202996337996 Sc
   0.0023449319002450    0.0045746125964670    0.8542624728419341 Sc
   0.9981342634529007    0.0003908756265237    0.6475436114905483 Sc
   1.0009714414968793    0.9982825722289459    0.1438142199093769 Sc
   0.6726069490729378    0.3340117496219150    0.6871091816662472 Sc
   0.6615125688642690    0.3289925854793471    0.1862993428438031 Sc
   0.3337537309662232    0.6617597521085431    0.0213655172568986 Sc
   0.3384530343773241    0.6614760823968717    0.5195547914394992 Sc
   0.3319789773796705    0.6707150517598932    0.3142534382632737 Sc
   0.6705841557994279    0.3362902029469743    0.9786574223019037 Nb
   0.6764280775306456    0.3435948125176115    0.4811455293265490 Nb
   0.3295127510137853    0.6640999632719997    0.8158222179985892 Nb
   0.2946385319198412    0.9973733827296437    0.2486299511610982 P
   0.2903465587101623    0.2907912305068955    0.7509531713752630 P
   0.0031970246333797    0.7141344190600446    0.7501180663188706 P
   0.7106031286025531    0.0016871789652786    0.7530725687900710 P
   0.9589954360433540    0.3315623693758946    0.5848058006353863 P
   0.6655859710011591    0.6275816989710592    0.5880568807431795 P
   0.9568131548597478    0.6228244303001336    0.0842239486055443 P
   0.6728998923102091    0.0456897654947432    0.0826913808851439 P
   0.3773306315334044    0.3331171111346645    0.0834368959681802 P
   0.6233092347376338    0.6653334159537714    0.9170921464721996 P
   0.0406504972534578    0.3741705274258250    0.9193013050954379 P
   0.3321953549503657    0.9561626134481163    0.9220284876736713 P
   0.6263238097464566    0.9581601911915465    0.4191733553180079 P
   0.3371146024188451    0.3790496821450393    0.4161537731715609 P
   0.0483298300898945    0.6694500535860531    0.4162722498401144 P
   0.7057514246951387    0.7088813587791559    0.2486882795824404 S
   0.0037846924873902    0.2951792241566558    0.2481966022719107 S
   0.3718909320414261    0.0437519120061520    0.5804755033041913 S
   0.2000776416025730    0.0099527416553488    0.3038483464359441 O
   0.8035101699201026    0.8012791384932459    0.3016883257728848 O
   0.9897496940809504    0.1946558369225055    0.3013899902553139 O
   0.2061867321306065    0.1875539446270114    0.8060978161553626 O
   0.9686279156269523    0.8018980287413581    0.8015032906377273 O
   0.8172833544921998    0.0351577040048572    0.8084900347751791 O
   0.7885365218491542    0.9557598286365453    0.7003502178113165 O
   0.1823237649498632    0.2101608990833264    0.6956026102354770 O
   0.0377095545551740    0.8166648529779826    0.6930470485658190 O
   0.7931542666497231    0.8082647590641001    0.1952588773611199 O
   0.0085768794574594    0.2029445063515507    0.1950135476675158 O
   0.1906949082846330    0.9849232111108928    0.1921062317251994 O
   0.8691658208117661    0.3493497798682343    0.6388396173136329 O
   0.4804535173201777    0.1460984036945314    0.6298579284706297 O
   0.6545283295755059    0.5327400611011086    0.6451245222641391 O
   0.8606544863010386    0.5160945491233917    0.1372468786843225 O
   0.6485595044853513    0.1352400713960299    0.1359325386752156 O
   0.4792825676555211    0.3456653084488083    0.1385181231887173 O
   0.4813913078910032    0.3204799630022163    0.0285215018111927 O
   0.8489327742257466    0.5242972591797282    0.0268593929710056 O
   0.6850241688051495    0.1576499278732790    0.0264294361701466 O
   0.4560358379496003    0.1340271877399410    0.5235816650464697 O
   0.6702415390916417    0.5096945232139378    0.5349073076029746 O
   0.8386894330834741    0.3142488074933562    0.5297766135335552 O
   0.5267175068844149    0.6802970679965086    0.9692103232078069 O
   0.1422091712242395    0.4708271966578111    0.9729585607225908 O
   0.3156218198099363    0.8635457930505251    0.9795537174339487 O
   0.5516236440164177    0.8546978545953120    0.4753260158321161 O
   0.3133165596771656    0.4599648812999796    0.4715414596139528 O
   0.1680924191656362    0.7016216444357846    0.4682301030583726 O
   0.1118850882968652    0.6260412238408777    0.3600919884046678 O
   0.4997739878607666    0.8786819909480662    0.3669874838708866 O
   0.3692747353559150    0.4905800532810148    0.3617892672089039 O
   0.1363509615521082    0.4854824137929577    0.8630493960576563 O
   0.3562909512351639    0.8518207014533514    0.8696752596869400 O
   0.5128569459053178    0.6360314775925499    0.8597684872833702 O
   0.0245792538259873    0.8294303007150589    0.4095054144749133 O
   0.8090846386433581    0.9879928056353831    0.4083026759919433 O
   0.1837232534405058    0.1901599216753742    0.4092984528276922 O
   0.0196682212560658    0.1935779519534786    0.9151356561255217 O
   0.1750405328973436    0.9770014719361106    0.9109278707285277 O
   0.8044078336111482    0.8238502382270685    0.9116076383163340 O
   0.9701768780293326    0.1645788712462488    0.5853744730261529 O
   0.1991653055856081    0.0303173794979297    0.5819456646115088 O
   0.8346618265428596    0.8036387725392304    0.5838966563678427 O
   0.9739454042002631    0.8055721990851288    0.0835810842393956 O
   0.8385973712951834    0.0337287750164002    0.0841719418941342 O
   0.2011897036710164    0.1599686589809677    0.0823232029131220 O
   0.6734938081699207    0.1503371134580604    0.7424848999043067 O
   0.4795048164165703    0.3269144618542341    0.7458564838108723 O
   0.8445452709681239    0.5273199558736910    0.7455897625125599 O
   0.6935130703206307    0.5352552392141106    0.2479641672291237 O
   0.8500709420538476    0.3199421983508736    0.2470497172149255 O
   0.4782783947235699    0.1627281367089270    0.2473895153364991 O
   0.6396380330741366    0.4967610230386833    0.9232250669257739 O
   0.8568522286637976    0.3601467125704654    0.9198414204184907 O
   0.5030198069959807    0.1400365720199938    0.9224966584305152 O
   0.6422865791349833    0.1454171618246512    0.4269045436601909 O
   0.5029834331929403    0.3546130814676116    0.4250753000977829 O
   0.8598065932519151    0.5078888400982902    0.4288521026629634 O
   0.3555702910535783    0.4924709213832540    0.0787880413858423 O
   0.1414458951115367    0.6480414289301304    0.0812122626630472 O
   0.5068815609494952    0.8657403520385863    0.0779200370548587 O
   0.3555868734039954    0.8694735004175850    0.5810292892036560 O
   0.5020459839227477    0.6423730607408018    0.5812949278516196 O
   0.1355166412042081    0.4972684591078496    0.5768800450581827 O
   0.3111843725016075    0.8314573341643140    0.2522616454639877 O
   0.5285984837813865    0.6870819077276020    0.2504692268399918 O
   0.1665230832979664    0.4673558001344282    0.2499974730597078 O
   0.3117255464131138    0.4813872120642454    0.7579741389528192 O
   0.1695424008249223    0.6965562051355605    0.7626250905694650 O
   0.5257367270890697    0.8297122968235380    0.7625899551167866 O
