Na30 Nb3 Al21 P36 O144
1.0
  17.1460746136654123   -0.0064319351770190    0.0037238547144663
  -4.2893032581186814    7.4282250081766854    0.0006033543569795
   0.0047284922919784    0.0045212908429822   21.6928045239577898
Na Nb Al P O
30 3 21 36 144
direct
   0.3196470319129026    0.9984459688571654    0.2532829401005996 Na
   0.6818790252847051    0.3613120845272249    0.2550968117366789 Na
   0.3181126070804867    0.6346576765682193    0.7549997403108915 Na
   0.8179514452011704    0.6341822508957378    0.7545137395331790 Na
   0.1510091595791771    0.3352921443146136    0.5828033554164895 Na
   0.6506324034912764    0.3335498214337677    0.5815266625957890 Na
   0.0150146912587971    0.6966337647558714    0.5816409051198437 Na
   0.5151824311004776    0.6994751075549316    0.5799731447635998 Na
   0.3333363229694739    0.9693528199421723    0.5821231329865212 Na
   0.8321359238886104    0.9681734220790550    0.5819820473783333 Na
   0.1512808542841707    0.9676207038818727    0.0825639000901062 Na
   0.6518974959120728    0.9699518794570062    0.0839584352284958 Na
   0.3326181407075920    0.6973757424636576    0.0845071161054704 Na
   0.8327590407891909    0.6969314315498082    0.0823249361262831 Na
   0.0148736782127602    0.3333680419847904    0.0815726352265019 Na
   0.5157804826519964    0.3348955622322861    0.0846617740080175 Na
   0.6655504073068031    0.0355590210786492    0.4100822991201463 Na
   0.3511023623042029    0.6705547684749684    0.4114292028307056 Na
   0.0002116175203610    0.9994320548626463    0.5004956841106065 Na
   0.4990035315044630    0.0241491488856436    0.4952582337916033 Na
   0.0002211482919238   -0.0008971040532183    0.0013889427676655 Na
   0.4997401212646118    0.9988074192351111    0.0023632017230404 Na
   0.3346631161899465    0.3130636248490217    0.8350971307961792 Na
   0.8343159043496109    0.3127406761166531    0.8348868235682551 Na
   0.3367794913717402    0.3362339015722473    0.3328468446861606 Na
   0.8512726819771298    0.3478966700783296    0.3327977657761334 Na
   0.1610353814785656    0.6462934811540012    0.1707196557411386 Na
   0.6637870564242334    0.6838930046696986    0.1714801064407186 Na
   0.1589782452193763    0.6689468490014886    0.6698465411699545 Na
   0.6589352949834639    0.6683704114335547    0.6697767301275291 Na
  -0.0000408237859118    0.9969389822002532    0.3550788537796647 Nb
   0.0006026749139778    0.0028287381654650    0.8579357424809237 Nb
   0.5005718895948048    0.0026733584228723    0.8580344832846312 Nb
   0.4985861704548310    0.0063333788106864    0.3519844514406820 Al
   0.0007261849136597   -0.0000382348716396    0.6484204092491831 Al
   0.5010619605974632   -0.0000028548808880    0.6480849784894467 Al
   0.0002870865548578    0.0013656987528035    0.1483073468406424 Al
   0.5007396468570992    0.9993484000944244    0.1510949189586205 Al
   0.3340696182762757    0.3304702258120185    0.6872009737467182 Al
   0.8341009463829805    0.3312451389199370    0.6871107760861678 Al
   0.3342711605650965    0.3401939043963462    0.1878731918945759 Al
   0.8339239743820395    0.3282031358804913    0.1881872953022715 Al
   0.3334054926050275    0.3347290040214970    0.9784660791601143 Al
   0.8337444292234859    0.3344092261148054    0.9783764929022714 Al
   0.3325956092250046    0.3264837815198110    0.4779268873206480 Al
   0.8348592531378177    0.3364333219116857    0.4777937371034773 Al
   0.1661799116404810    0.6663483410989182    0.0188793542863764 Al
   0.6660529122847328    0.6666493912212637    0.0188922410533114 Al
   0.1675975143364343    0.6687117859074774    0.5175775177398664 Al
   0.6651297987170809    0.6627871094730019    0.5169871807457487 Al
   0.1656703097280472    0.6616318651691073    0.3130782737402970 Al
   0.6637569444191682    0.6680718825150519    0.3141396578169315 Al
   0.1647457736973286    0.6680596195272606    0.8140149315384079 Al
   0.6645405008160120    0.6678438884915054    0.8141000493718360 Al
   0.1472588838959238   -0.0011216499297029    0.2458673328512295 P
   0.6446553512546485    0.9968024150545866    0.2510333061985069 P
   0.3559869700323261    0.7065877195453514    0.2516070597491171 P
   0.8522629159962912    0.7060197670079992    0.2460125995588786 P
   0.0008894001099419    0.2951596536738006    0.2465958256591556 P
   0.4998528362857923    0.2928759332358894    0.2489809682795505 P
   0.1465095166048374    0.2939105343511818    0.7463270040982501 P
   0.6464054209108691    0.2935182221787033    0.7463446129262744 P
   0.0021622730678673    0.7065952752642691    0.7468400198135643 P
   0.5022000042917660    0.7068486664389440    0.7466626228703326 P
   0.3531655166338111    0.0027257274102532    0.7470130351448618 P
   0.8528299127719803    0.0023096913100042    0.7470084960023203 P
   0.4760669733142677    0.3332069071444974    0.5828810500569832 P
   0.9762921410442102    0.3331621176391155    0.5832195683202309 P
   0.1901943381241749    0.0479412335158561    0.5825308014369112 P
   0.6890503370569532    0.0462141758855232    0.5817347948698750 P
   0.3336978300737378    0.6230135563578527    0.5833234507907633 P
   0.8329310538211101    0.6205242001226045    0.5839569179633647 P
   0.4760374818412223    0.6205680625249572    0.0834781861860261 P
   0.9758624269588086    0.6196376817295017    0.0834472998272057 P
   0.3338729589478093    0.0466621434410985    0.0847896671753063 P
   0.8337953310140122    0.0469815932521114    0.0830527582702221 P
   0.1901004286508497    0.3325548711763291    0.0830848294651460 P
   0.6894213625053605    0.3320241252787472    0.0847187140188631 P
   0.3038691980487416    0.6516271254254116    0.9167395997064169 P
   0.8036941834491194    0.6513365684707775    0.9167945513324661 P
   0.0225403837096470    0.3931263815142643    0.9185125331999843 P
   0.5225684182453822    0.3928486945883126    0.9189695403619085 P
   0.1741606233698174    0.9547932100929255    0.9186329308874717 P
   0.6740328269348071    0.9549739594861787    0.9185443085470854 P
   0.3099027029611236    0.9597759318153829    0.4148370646964487 P
   0.8067435253315377    0.9520344350667440    0.4189863401396804 P
   0.1698132017881455    0.3852322496957663    0.4193302873515767 P
   0.6680408211603580    0.3819627184031194    0.4150568703640961 P
   0.0235525518158257    0.6543265243937586    0.4178878997505200 P
   0.5210632409062198    0.6620248958131503    0.4174854775895835 P
   0.0992585633162592    0.0192652414922304    0.3044113978516578 O
   0.6000940742498008    0.0322432926800429    0.3076346845055317 O
   0.4111617091810529    0.7957172229039055    0.3105712195142455 O
   0.9110060131267591    0.7992270214838075    0.3046506301522749 O
   0.4820310333090451    0.1658387069407798    0.3040059514775555 O
   0.9882630874401045    0.1729181031838012    0.3043787411470947 O
   0.0990337138081981    0.1768193059158413    0.8043810822627361 O
   0.5987209360705038    0.1764763579414993    0.8043815706718316 O
   0.4851760034448053    0.8014811616198751    0.8028036187611761 O
   0.9853513196506815    0.8019599716490490    0.8028739790915215 O
   0.4107324049069334    0.0248767271039559    0.8058411099057692 O
   0.9108139405900021    0.0256381077449570    0.8057733022585960 O
   0.3987714555761881    0.9690246421336369    0.6907630399504119 O
   0.8984775794226615    0.9684313709093544    0.6908221485019297 O
   0.0896011251307741    0.2025630032856165    0.6887328671135076 O
   0.5894978601055957    0.2026034593396309    0.6886783827455089 O
   0.0137690122426944    0.8187664923542309    0.6880776874256566 O
   0.5143219253081680    0.8196078029638038    0.6879892802892721 O
   0.3994277016785858    0.8312739526384242    0.1944390058947249 O
   0.8988916971734311    0.8220326918754599    0.1891937481520345 O
   0.0138144037087188    0.2060259103942947    0.1888433276122235 O
   0.5174923812729118    0.2104116189417430    0.1900066422262952 O
   0.0899084802270861    0.9771848364278314    0.1888501583787101 O
   0.5896335108508615    0.9737554176492709    0.1914004700935575 O
   0.4351254992376419    0.3721171815703488    0.6395484050889703 O
   0.9347795043207777    0.3712921539317458    0.6399127369060787 O
   0.2500871465352451    0.1323843049717838    0.6393502487939559 O
   0.7509619006290199    0.1384135867473495    0.6369684522320213 O
   0.3172876323391285    0.5068247429665741    0.6413964781653965 O
   0.8176352446287527    0.5102106206628544    0.6434477085326338 O
   0.4341674862579505    0.4977035657523278    0.1396695108686641 O
   0.9323454320457530    0.4985228933216341    0.1398857668402304 O
   0.3157185316739287    0.1250771250266006    0.1436242704563013 O
   0.8143375681557459    0.1279762604087495    0.1401936350125623 O
   0.2497799156689604    0.3678647361859249    0.1401208423287781 O
   0.7454094898998084    0.3635928243588720    0.1439511189733389 O
   0.2315471660539797    0.2965536225356957    0.0261136725419095 O
   0.7338195436579604    0.2980935466613950    0.0289947753270673 O
   0.4164722482022278    0.5408102664058061    0.0262344644376548 O
   0.9170447122455261    0.5388689191892083    0.0259075305294377 O
   0.3523823635575627    0.1708322100326435    0.0292535326873932 O
   0.8533385916752756    0.1686458240621692    0.0265927495492439 O
   0.2313657427525063    0.1676000669733173    0.5256551160653365 O
   0.7285153249010451    0.1574280886075268    0.5222602064734315 O
   0.3497839336991951    0.5373896154301930    0.5259309877983528 O
   0.8496870635605556    0.5302714306211154    0.5284753437070082 O
   0.4155182688985095    0.2938568766576558    0.5261426870992126 O
   0.9158766674510151    0.2948763713533512    0.5264273696241092 O
   0.2633160795541529    0.6849554883769641    0.9749943731632257 O
   0.7632252049463192    0.6846429488905313    0.9750864223463008 O
   0.0759562505005517    0.4670424362770841    0.9786895689887252 O
   0.5761815151168757    0.4666424637467870    0.9790740858045850 O
   0.1552740460337298    0.8452483114790263    0.9785434051160901 O
   0.6552557379105309    0.8453203898260077    0.9783233047028991 O
   0.2675623657003268    0.8384610472109119    0.4730700178752860 O
   0.7672386973824127    0.8467182604575888    0.4793524012808905 O
   0.1555721922409375    0.4628478845911387    0.4796251147375301 O
   0.6547037610181435    0.4663127036600109    0.4744891901166673 O
   0.0777607157856266    0.6871434328248821    0.4778598269703219 O
   0.5782947097034542    0.6949283225433214    0.4767945140906933 O
   0.0697292591535939    0.6387860013243382    0.3604535539168315 O
   0.5667223752058924    0.6382892259761851    0.3610641798643390 O
   0.2553343249567243    0.8706655325376725    0.3560228347089065 O
   0.7484857438228693    0.8599106356843311    0.3628384313153287 O
   0.1833741235182681    0.5032887049975489    0.3633373424705326 O
   0.6802254374931578    0.4933309770662034    0.3567871435665823 O
   0.0701938973406283    0.4982286952599674    0.8609685577350427 O
   0.5698207531563563    0.4985346694382094    0.8613492945389435 O
   0.1821453608111078    0.8628435556083404    0.8611516257651725 O
   0.6824259664011898    0.8635809725322925    0.8610313171212519 O
   0.2546758420427010    0.6407539124874212    0.8563999185390267 O
   0.7544472388846468    0.6402809036294110    0.8564884584489283 O
   0.0122738175002252    0.8262579725883933    0.4121247314216978 O
   0.5112226185010322    0.8342282649403010    0.4120629924691783 O
   0.4051825690040005    0.9783733234424744    0.4099544481040178 O
   0.9023603624159534    0.9724333873203252    0.4132979639561217 O
   0.0847741617975789    0.1937762852901512    0.4130830114151650 O
   0.5837091928978508    0.1894401546516727    0.4091448717657887 O
   0.0113269860337037    0.1970954879693677    0.9130003711712135 O
   0.5114382645991693    0.1970460848040842    0.9131500990324327 O
   0.0876490226952485    0.9775378243180045    0.9113950525144159 O
   0.5872602835601621    0.9767797086448283    0.9113712631354152 O
   0.4018662219397293    0.8249456476434800    0.9124344383515002 O
   0.9017950602107109    0.8245980445773677    0.9123023314437254 O
   0.4879589690900217    0.1651287598259558    0.5902133031102857 O
   0.9878229550507613    0.1641471731967704    0.5903069891170883 O
   0.0936666912090395    0.0226507936223334    0.5890921411964788 O
   0.5934164618614403    0.0248945179300818    0.5884410640236485 O
   0.4182257689263587    0.8151358661597852    0.5889607412362278 O
   0.9173851678940987    0.8136089598969725    0.5887103001757104 O
   0.4875005450322060    0.8120637796274623    0.0919031602205160 O
   0.9885039790167970    0.8127624159794449    0.0899631329566978 O
   0.4179696004942378    0.0222027120106415    0.0913578994691074 O
   0.9179792149217871    0.0227057411694878    0.0898727548525024 O
   0.0936429439016209    0.1643450751098691    0.0894460693837441 O
   0.5931290044795310    0.1627000286255957    0.0900323105419865 O
   0.3469387620268500    0.1729608322581006    0.7415015573672404 O
   0.8458850916775228    0.1715676991070368    0.7410757829763233 O
   0.2407624293454643    0.3128694360895288    0.7427185838524781 O
   0.7404142164653519    0.3113764522444961    0.7429155199959780 O
   0.4147129231621158    0.5225510757278223    0.7425957481276093 O
   0.9148748278464542    0.5219583750839646    0.7432200771757903 O
   0.3484308160985337    0.5222602477604940    0.2435504304913502 O
   0.8435786814306969    0.5185607599713082    0.2432488549400512 O
   0.4140517145837222    0.3063481928354347    0.2422704603062852 O
   0.9151356032057756    0.3077168536812855    0.2427580462467103 O
   0.2407806899596762    0.1694877138107175    0.2437244482072753 O
   0.7388698696171729    0.1693137029693800    0.2450770891519730 O
   0.3153130895854587    0.4868365758417450    0.9221407497543290 O
   0.8148878672153337    0.4863266529278213    0.9225358439305920 O
   0.4280979519314848    0.3673593797808548    0.9237508498571377 O
   0.9281361890951827    0.3682094088723553    0.9228328227863517 O
   0.2563315917732650    0.1426916215543797    0.9243427209410648 O
   0.7555222615916392    0.1437364815084985    0.9243329813034763 O
   0.3176776007595382    0.1446647581385941    0.4223905554780920 O
   0.8179191657375852    0.1419058108204889    0.4228139294444230 O
   0.2539885087413333    0.3648639933460087    0.4236288446174558 O
   0.7519394444607509    0.3579594192012253    0.4217017221367939 O
   0.4255024228725642    0.4970878590447462    0.4240522438982253 O
   0.9287703340110255    0.4904381448282524    0.4235645177910900 O
   0.1776516179853513    0.5006323153297407    0.0772468480573081 O
   0.6777052503153538    0.5007404602224278    0.0781685593792267 O
   0.0724929951937173    0.6442973466507147    0.0783002521169688 O
   0.5729783714215345    0.6474353811367733    0.0777056867053428 O
   0.2501205319534668    0.8535273855416753    0.0775222423017600 O
   0.7502526267683751    0.8535886164216225    0.0765179252979064 O
   0.1787790071345096    0.8562465214254550    0.5758536518474886 O
   0.6763282014513260    0.8530120580120448    0.5778919224116724 O
   0.2498354028469161    0.6482194050703680    0.5775694252854282 O
   0.7482141811524184    0.6419584120206298    0.5771232508906387 O
   0.0727504699913148    0.5011787756597748    0.5772442265574899 O
   0.5722412985251301    0.5003575836653231    0.5755078784244422 O
   0.1574561031953831    0.8314090918720138    0.2533184987803873 O
   0.6534181143600629    0.8289028508265894    0.2588633858953175 O
   0.2611477022165711    0.6883035002517770    0.2568279017929733 O
   0.7588425173031164    0.6871565014268324    0.2542088173482437 O
   0.0855075772356637    0.4779984639862372    0.2568912875046060 O
   0.5850731173372451    0.4784295377443633    0.2568155581525591 O
   0.1569136659771129    0.4820854465787691    0.7538559001813734 O
   0.6569080419132910    0.4817584530933322    0.7539993664911668 O
   0.0860757398649722    0.6921323289635142    0.7567786676048373 O
   0.5858025699962693    0.6912692301122871    0.7567825956526355 O
   0.2607914664823432    0.8301638066053938    0.7543990074697237 O
   0.7606364413011112    0.8294992171103431    0.7545501092474490 O
