Mo2 W2 Se2 S6
1.0
   1.6099479999999999   -2.7885109999999989    0.0000000000000000
   1.6099479999999999    2.7885109999999989    0.0000000000000000
   0.0000000000000000    0.0000000000000000   36.3595260000000025
Mo W Se S
2 2 2 6
direct
   0.0000000000000000    0.0000000000000000    0.0939110000000000 Mo
   0.0000000000000000    0.0000000000000000    0.4696550000000000 Mo
   0.3333330000000000    0.6666670000000000    0.2818140000000000 W
   0.3333330000000000    0.6666670000000000    0.6575350000000000 W
   0.3333330000000000    0.6666670000000000    0.0468450000000000 Se
   0.3333330000000000    0.6666670000000000    0.1409700000000000 Se
   0.0000000000000000    0.0000000000000000    0.3247580000000000 S
   0.0000000000000000    0.0000000000000000    0.7005129999999991 S
   0.3333330000000000    0.6666670000000000    0.4268690000000000 S
   0.3333330000000000    0.6666670000000000    0.5124600000000000 S
   0.0000000000000000    0.0000000000000000    0.2388519999999990 S
   0.0000000000000000    0.0000000000000000    0.6145670000000000 S
