Tb4 Mg4 Se12
1.0
   7.6690980000000000    0.0000000000000000   -3.6042900000000002
   0.0000000000000000   11.9511040000000008    0.0000000000000000
  -2.4298669999999989    0.0000000000000000    7.1752490000000000
Tb Mg Se
4 4 12
direct
   0.9634069999999991    0.0000000000000000    0.1894060000000000 Tb
   0.0365930000000000    0.0000000000000000    0.8105939999999990 Tb
   0.4634069999999990    0.5000000000000000    0.1894060000000000 Tb
   0.5365930000000000    0.5000000000000000    0.8105939999999990 Tb
   0.0000000000000000    0.3278649999999990    0.0000000000000000 Mg
   0.0000000000000000    0.6721349999999990    0.0000000000000000 Mg
   0.5000000000000000    0.8278650000000000    0.0000000000000000 Mg
   0.5000000000000000    0.1721349999999990    0.0000000000000000 Mg
   0.2582910000000000    0.1544140000000000    0.2342930000000000 Se
   0.7417090000000000    0.8455870000000000    0.7657069999999990 Se
   0.7417090000000000    0.1544140000000000    0.7657069999999990 Se
   0.2582910000000000    0.8455870000000000    0.2342930000000000 Se
   0.7582909999999990    0.6544130000000000    0.2342930000000000 Se
   0.2417089999999990    0.3455870000000000    0.7657069999999990 Se
   0.2417089999999990    0.6544130000000000    0.7657069999999990 Se
   0.7582909999999990    0.3455870000000000    0.2342930000000000 Se
   0.2936709999999990    0.0000000000000000    0.6981280000000000 Se
   0.7063290000000000    0.0000000000000000    0.3018720000000000 Se
   0.7936710000000000    0.5000000000000000    0.6981280000000000 Se
   0.2063289999999990    0.5000000000000000    0.3018720000000000 Se
