Mg2 Ag2 F6
1.0
   4.7888202299999998   -2.7575422700000001   -0.0009150600000000
   4.7888202299999998    2.7575422700000001   -0.0009150600000000
   3.2018078999999999    0.0000000000000000    4.5039155300000004
Mg Ag F
2 2 6
direct
  -0.0000000000000000    0.0000000000000000    0.0000000000000000 Mg
   0.5000000000000000    0.5000000000000000    0.5000000000000000 Mg
   0.2500000000000000    0.2500000000000000    0.2500000000000000 Ag
   0.7500000000000000    0.7500000000000000    0.7500000000000000 Ag
   0.8115764000000000    0.2500000000000000    0.6884235999999990 F
   0.6884235999999990    0.8115764000000000    0.2500000000000000 F
   0.2500000000000000    0.6884235999999990    0.8115764000000000 F
   0.3115764000000000    0.1884236000000000    0.7500000000000000 F
   0.1884236000000000    0.7500000000000000    0.3115764000000000 F
   0.7500000000000000    0.3115764000000000    0.1884236000000000 F
