Sr1 Al1 O3
1.0
   3.8357609999999989    0.0000000000000000    0.0000000000000000
   0.0000000000000000    3.8357609999999989    0.0000000000000000
   0.0000000000000000    0.0000000000000000    3.8357609999999989
Sr Al O
1 1 3
direct
   0.0000000000000000    0.0000000000000000    0.0000000000000000 Sr
   0.5000000000000000    0.5000000000000000    0.5000000000000000 Al
   0.5000000000000000    0.5000000000000000    0.0000000000000000 O
   0.5000000000000000    0.0000000000000000    0.5000000000000000 O
   0.0000000000000000    0.5000000000000000    0.5000000000000000 O
