V4 Cr4 O12
1.0
  -5.1180990000000000    0.0000000000000000    0.0000000000000000
   2.5531820000000001    4.8719560000000000    0.0000000000000000
  -0.0093420000000000   -2.6582420000000000   -8.4195159999999998
V Cr O
4 4 12
direct
   0.2739040000000000    0.1268910000000000    0.4255219999999990 V
   0.7807600000000000    0.6292519999999990    0.9247460000000000 V
   0.4776849999999990    0.1227449999999990    0.8264319999999991 V
   0.7226119999999990    0.8718659999999990    0.5736049999999990 V
   0.9758650000000000    0.6290990000000000    0.3245260000000000 Cr
   0.0239309999999990    0.3705340000000000    0.6754270000000000 Cr
   0.5227700000000001    0.8725809999999991    0.1738770000000000 Cr
   0.2269550000000000    0.3763030000000000    0.0757279999999990 Cr
   0.5270509999999990    0.4755919999999990    0.2765769999999990 O
   0.0258219999999990    0.9742980000000000    0.7761250000000000 O
   0.5727540000000000    0.1256390000000000    0.6261840000000000 O
   0.9331140000000000    0.3751980000000000    0.8756659999999991 O
   0.4755260000000000    0.2266540000000000    0.0261050000000000 O
   0.9709279999999991    0.7197089999999990    0.5268710000000000 O
   0.0254749999999990    0.2785580000000000    0.4728040000000000 O
   0.5240880000000000    0.7752470000000000    0.9745919999999991 O
   0.0730239999999990    0.6255109999999990    0.1252339999999990 O
   0.4248510000000000    0.8739709999999991    0.3731839999999990 O
   0.9714910000000000    0.0254600000000000    0.2238730000000000 O
   0.4713920000000000    0.5248929999999991    0.7229220000000000 O
