Ce1 Ga1 O3
1.0
   4.4134669999999998    0.0000000000000000    0.0000000000000000
   0.0000000000000000    4.4134669999999998    0.0000000000000000
   0.0000000000000000    0.0000000000000000    4.4134669999999998
Ce Ga O
1 1 3
direct
   0.5000000000000000    0.5000000000000000    0.5000000000000000 Ce
   0.0000000000000000    0.0000000000000000    0.0000000000000000 Ga
   0.0000000000000000    0.5000000000000000    0.5000000000000000 O
   0.5000000000000000    0.0000000000000000    0.5000000000000000 O
   0.5000000000000000    0.5000000000000000    0.0000000000000000 O
