Ca3 Bi1 P1
1.0
   5.8200000000000003    0.0000000000000000    0.0000000000000000
   0.0000000000000000    5.8200000000000003    0.0000000000000000
   0.0000000000000000    0.0000000000000000    5.8200000000000003
Ca Bi P
3 1 1
direct
   0.0000000000000000    0.5000000000000000    0.5000000000000000 Ca
   0.5000000000000000    0.0000000000000000    0.5000000000000000 Ca
   0.5000000000000000    0.5000000000000000    0.0000000000000000 Ca
   0.5000000000000000    0.5000000000000000    0.5000000000000000 Bi
   0.0000000000000000    0.0000000000000000    0.0000000000000000 P
