K4 Mn4 F12
1.0
   5.8937697199999999    0.0000000000000000    0.0000000000000000
   0.0000000000000000    5.9200925299999998    0.0000000000000000
   0.0000000000000000    0.0000000000000000    8.3366128499999999
K Mn F
4 4 12
direct
   0.9904511600000000    0.0021167500000000    0.7500000000000000 K
   0.4904511600000000    0.4978832500000000    0.7500000000000000 K
   0.5095488400000000    0.5021167500000000    0.2500000000000000 K
   0.0095488400000000    0.9978832500000000    0.2500000000000000 K
  -0.0000000000000000    0.5000000000000000   -0.0000000000000000 Mn
   0.5000000000000000   -0.0000000000000000    0.5000000000000000 Mn
   0.5000000000000000   -0.0000000000000000   -0.0000000000000000 Mn
  -0.0000000000000000    0.5000000000000000    0.5000000000000000 Mn
   0.7345922100000000    0.2653590300000000    0.5225603200000000 F
   0.2345922100000000    0.2346409700000000    0.9774396800000000 F
   0.7654077900000000    0.7653590300000001    0.4774396800000000 F
   0.2654077900000000    0.7346409700000001    0.0225603200000000 F
   0.2654077900000000    0.7346409700000001    0.4774396800000000 F
   0.7654077900000000    0.7653590300000001    0.0225603200000000 F
   0.2345922100000000    0.2346409700000000    0.5225603200000000 F
   0.7345922100000000    0.2653590300000000    0.9774396800000000 F
   0.5035742300000000    0.9563841999999991    0.7500000000000000 F
   0.0035742300000000    0.5436158000000000    0.7500000000000000 F
   0.9964257700000000    0.4563841999999990    0.2500000000000000 F
   0.4964257700000000    0.0436157999999990    0.2500000000000000 F
