Gd8 Er8 O24
1.0
   5.3126208699999999    7.5159293399999996   -0.0019460700000000
  -5.3138062100000001    7.5165884299999997   -0.0004568800000000
  -0.0007474600000000    7.5136654600000004    7.5105105900000000
Gd Er O
8 8 24
direct
   0.5014888500000000    0.5014289500000000    0.7491760600000000 Gd
   0.5299353800000000    0.0309539000000000    0.9700866600000000 Gd
   0.9692356600000001    0.4701986500000000    0.0297739500000000 Gd
   0.2799687000000000    0.7200530100000000    0.4999775900000000 Gd
   0.7812727500000001    0.2181705900000000    0.5001216600000000 Gd
   0.9962476300000001    0.9981398300000001    0.2498008300000000 Gd
   0.4985144600000000    0.4983560900000000    0.2509777300000000 Gd
   0.0019631800000000    0.0037935200000000    0.7501186200000001 Gd
   0.2481988800000000    0.2487661700000000    0.7816607700000000 Er
   0.2509279100000000    0.2517685300000000    0.2819240600000000 Er
   0.7513571800000001    0.7518220400000000    0.2182672100000000 Er
   0.2188494000000000    0.7811316700000001   -0.0000160200000000 Er
   0.7172227100000000    0.2827405500000000    0.0000056900000000 Er
   0.0306587700000000    0.5314432000000000    0.4685037300000000 Er
   0.4683065999999990    0.9693150600000000    0.5316335500000000 Er
   0.7482450900000001    0.7487854400000000    0.7181723600000001 Er
   0.7302260100000000    0.4755732400000000    0.2909004200000000 O
   0.5242872700000000    0.2700565000000000    0.7093288100000000 O
   0.7745396800000001    0.4863348900000000    0.7196040700000000 O
   0.2683608500000000    0.9859993300000001    0.0197901600000000 O
   0.9913740900000000    0.2749925900000000    0.5189643100000000 O
   0.4914210100000000    0.7687362900000000    0.2207642100000000 O
   0.7701763300000000    0.0304051300000000    0.9961700800000001 O
   0.9695648300000000    0.2300640000000000    0.0036140500000000 O
   0.0477758700000000    0.2382520000000000    0.2375584100000000 O
   0.2524890600000000    0.4529632400000000    0.5255610200000000 O
   0.5471241100000001    0.7477059500000001    0.4743234999999990 O
   0.7622119900000001    0.9527962000000000    0.7617135400000000 O
   0.9581400700000000    0.7530041100000000    0.2628420200000000 O
   0.4581170500000000    0.2620300000000000    0.0241479300000000 O
   0.2467761300000000    0.0418925200000000    0.7371913500000000 O
   0.7377911300000000    0.5420268700000000    0.9759338100000000 O
   0.2316976300000000    0.9756441400000000    0.5061806000000000 O
   0.0243483100000000    0.7680148999999999    0.4940393800000000 O
   0.0139179300000000    0.7319048600000000    0.9800007300000000 O
   0.5137671700000001    0.2253774800000000    0.2804160100000000 O
   0.7246686800000001    0.0085202800000000    0.4814361800000000 O
   0.2311976999999990    0.5086446000000000    0.7791900900000001 O
   0.2684050300000000    0.5306522300000001    0.2070310300000000 O
   0.4692519100000000    0.7315194300000000    0.7931118400000000 O
