Ca2 Ni2 O6
1.0
   0.0000000000000000    0.0000000000000000   -4.7889720000000002
  -2.5975079999999999   -4.4990160000000001    0.0000000000000000
  -5.1950159999999999    0.0000000000000000    0.0000000000000000
Ca Ni O
2 2 6
direct
   0.7344750000000000    0.6666660000000000    0.6666670000000000 Ca
   0.2344750000000000    0.3333339999999990    0.3333330000000000 Ca
   0.0145230000000000    0.0000000000000000    0.0000000000000000 Ni
   0.5145230000000000    0.0000000000000000    0.0000000000000000 Ni
   0.2661560000000000    0.3184340000000000    0.8407829999999999 O
   0.2661560000000000    0.8407819999999990    0.8407829999999999 O
   0.7661559999999999    0.1592180000000000    0.6815650000000000 O
   0.2661560000000000    0.8407819999999990    0.3184349999999990 O
   0.7661559999999999    0.1592180000000000    0.1592170000000000 O
   0.7661559999999999    0.6815660000000000    0.1592170000000000 O
