Tl8 N8 O24
1.0
   7.7121550000000001    0.0000000000000000    0.0000000000000000
   0.0000000000000000    8.8652029999999993    0.0000000000000000
   0.0000000000000000    0.0000000000000000   10.5496040000000004
Tl N O
8 8 24
direct
   0.6895700000000000    0.4525340000000000    0.1278250000000000 Tl
   0.1895700000000000    0.5474660000000000    0.3721750000000000 Tl
   0.3104300000000000    0.9525340000000000    0.8721749999999990 Tl
   0.8104300000000001    0.0474660000000000    0.6278250000000000 Tl
   0.3104300000000000    0.5474660000000000    0.8721749999999990 Tl
   0.8104300000000001    0.4525340000000000    0.6278250000000000 Tl
   0.6895700000000000    0.0474660000000000    0.1278250000000000 Tl
   0.1895700000000000    0.9525340000000000    0.3721750000000000 Tl
   0.7441930000000000    0.7500000000000000    0.3420070000000000 N
   0.2441930000000000    0.2500000000000000    0.1579930000000000 N
   0.2558070000000000    0.2500000000000000    0.6579929999999991 N
   0.7558070000000000    0.7500000000000000    0.8420069999999999 N
   0.8505889999999990    0.7500000000000000    0.0972170000000000 N
   0.3505890000000000    0.2500000000000000    0.4027830000000000 N
   0.1494110000000000    0.2500000000000000    0.9027830000000000 N
   0.6494110000000000    0.7500000000000000    0.5972170000000000 N
   0.8245389999999990    0.8749330000000000    0.3570020000000000 O
   0.3245389999999990    0.1250669999999990    0.1429980000000000 O
   0.1754610000000000    0.3749329999999990    0.6429980000000000 O
   0.6754610000000000    0.6250669999999990    0.8570019999999990 O
   0.1754610000000000    0.1250669999999990    0.6429980000000000 O
   0.6754610000000000    0.8749330000000000    0.8570019999999990 O
   0.8245389999999990    0.6250669999999990    0.3570020000000000 O
   0.3245389999999990    0.3749329999999990    0.1429980000000000 O
   0.5869010000000000    0.7500000000000000    0.3108140000000000 O
   0.0869009999999990    0.2500000000000000    0.1891860000000000 O
   0.4130990000000000    0.2500000000000000    0.6891860000000000 O
   0.9130990000000000    0.7500000000000000    0.8108139999999990 O
   0.9949990000000000    0.7500000000000000    0.0630469999999990 O
   0.4949989999999990    0.2500000000000000    0.4369530000000000 O
   0.0050009999999990    0.2500000000000000    0.9369529999999990 O
   0.5050009999999990    0.7500000000000000    0.5630470000000000 O
   0.3409720000000000    0.7500000000000000    0.0787870000000000 O
   0.8409719999999991    0.2500000000000000    0.4212130000000000 O
   0.6590279999999999    0.2500000000000000    0.9212129999999999 O
   0.1590280000000000    0.7500000000000000    0.5787869999999991 O
   0.2239540000000000    0.7500000000000000    0.1722520000000000 O
   0.7239540000000000    0.2500000000000000    0.3277480000000000 O
   0.7760460000000000    0.2500000000000000    0.8277479999999990 O
   0.2760460000000000    0.7500000000000000    0.6722520000000000 O
