Ca4 C4 O12
1.0
   3.6330169999999988    0.0000000000000000    0.0000000000000000
   0.0000000000000000    7.7682799999999999    0.0000000000000000
   0.0000000000000000    0.0000000000000000   10.8587150000000001
Ca C O
4 4 12
direct
   0.5000000000000000    0.5000000000000000    0.0000000000000000 Ca
   0.0000000000000000    0.0000000000000000    0.0000000000000000 Ca
   0.0000000000000000    0.0000000000000000    0.5000000000000000 Ca
   0.5000000000000000    0.5000000000000000    0.5000000000000000 Ca
   0.1461940000000000    0.2916510000000000    0.7500000000000000 C
   0.8538060000000000    0.7083490000000000    0.2500000000000000 C
   0.6461939999999990    0.2083489999999990    0.2500000000000000 C
   0.3538060000000000    0.7916510000000000    0.7500000000000000 C
   0.9884409999999991    0.2816650000000000    0.0154779999999990 O
   0.9906440000000000    0.1630440000000000    0.7500000000000000 O
   0.0093560000000000    0.8369559999999990    0.2500000000000000 O
   0.9884409999999991    0.2816650000000000    0.4845219999999991 O
   0.4884409999999990    0.2183350000000000    0.9845220000000000 O
   0.5115590000000000    0.7816649999999991    0.4845219999999991 O
   0.0115590000000000    0.7183349999999999    0.9845220000000000 O
   0.4884409999999990    0.2183350000000000    0.5154780000000000 O
   0.5115590000000000    0.7816649999999991    0.0154779999999990 O
   0.0115590000000000    0.7183349999999999    0.5154780000000000 O
   0.4906439999999990    0.3369560000000000    0.2500000000000000 O
   0.5093560000000000    0.6630440000000000    0.7500000000000000 O
