Fe4 Ni4 Mo12 N4
1.0
   6.6532460000000002    0.0000000000000000    0.0000000000000000
   0.0000000000000000    6.6532460000000002    0.0000000000000000
   0.0000000000000000    0.0000000000000000    6.6532460000000002
Fe Ni Mo N
4 4 12 4
direct
   0.1783120000000000    0.8216880000000000    0.3216880000000000 Fe
   0.3216880000000000    0.1783120000000000    0.8216880000000000 Fe
   0.8216880000000000    0.3216880000000000    0.1783120000000000 Fe
   0.6783119999999990    0.6783119999999990    0.6783119999999990 Fe
   0.5652680000000000    0.4347320000000000    0.9347320000000000 Ni
   0.4347320000000000    0.9347320000000000    0.5652680000000000 Ni
   0.9347320000000000    0.5652680000000000    0.4347320000000000 Ni
   0.0652679999999990    0.0652679999999990    0.0652679999999990 Ni
   0.8024819999999990    0.9533079999999990    0.3718289999999990 Mo
   0.6975180000000000    0.0466920000000000    0.8718290000000000 Mo
   0.1975180000000000    0.4533080000000000    0.1281710000000000 Mo
   0.3024820000000000    0.5466920000000000    0.6281709999999990 Mo
   0.9533079999999990    0.3718289999999990    0.8024819999999990 Mo
   0.0466920000000000    0.8718290000000000    0.6975180000000000 Mo
   0.4533080000000000    0.1281710000000000    0.1975180000000000 Mo
   0.5466920000000000    0.6281709999999990    0.3024820000000000 Mo
   0.3718289999999990    0.8024819999999990    0.9533079999999990 Mo
   0.8718290000000000    0.6975180000000000    0.0466920000000000 Mo
   0.1281710000000000    0.1975180000000000    0.4533080000000000 Mo
   0.6281709999999990    0.3024820000000000    0.5466920000000000 Mo
   0.8746900000000001    0.1253100000000000    0.6253100000000000 N
   0.6253100000000000    0.8746900000000001    0.1253100000000000 N
   0.1253100000000000    0.6253100000000000    0.8746900000000001 N
   0.3746900000000000    0.3746900000000000    0.3746900000000000 N
