Ag8 Te8 O24
1.0
   6.9244076100000003    0.0000000000000000    0.0000000000000000
   0.0000000000000000    6.5186172899999999    0.0126138900000000
   0.0000000000000000    0.2070875400000000   13.2939049800000006
Ag Te O
8 8 24
direct
   0.1709181800000000    0.4824218200000000    0.9269600000000001 Ag
   0.3290818200000000    0.4824218200000000    0.4269600000000001 Ag
   0.4530756999999990    0.5288080700000000    0.1896922900000000 Ag
   0.6709181800000000    0.5175781800000000    0.5730400000000000 Ag
   0.5469243000000000    0.4711919300000000    0.8103077100000000 Ag
   0.0469242999999990    0.5288080700000000    0.6896922900000000 Ag
   0.8290818200000000    0.5175781800000000    0.0730400000000000 Ag
   0.9530757000000000    0.4711919300000000    0.3103077100000000 Ag
   0.1370013200000000    0.9939585200000001    0.4104896700000000 Te
   0.8434883800000000    0.8661185600000000    0.8565537500000000 Te
   0.6565116200000000    0.8661185600000000    0.3565537500000000 Te
   0.3629986800000000    0.9939585200000001    0.9104896700000000 Te
   0.3434883800000000    0.1338814400000000    0.6434462500000000 Te
   0.6370013200000000    0.0060414800000000    0.0895103300000000 Te
   0.8629986800000000    0.0060414800000000    0.5895103300000000 Te
   0.1565116200000000    0.1338814400000000    0.1434462500000000 Te
   0.9187544500000000    0.1599014800000000    0.4643438000000000 O
   0.6829988300000001    0.8397738700000000    0.5144759400000000 O
   0.0812455500000000    0.8400985200000001    0.5356562000000000 O
   0.6477664600000000    0.5815397999999991    0.3595169200000000 O
   0.8522335400000001    0.5815397999999991    0.8595169200000000 O
   0.3455519999999990    0.1908311100000000    0.8037483100000000 O
   0.6699354200000001    0.1912332300000000    0.6301972300000001 O
   0.3300645800000000    0.8087667700000000    0.3698027700000000 O
   0.0525139500000000    0.1659444400000000    0.6611228000000000 O
   0.6544479999999990    0.8091688900000000    0.1962516900000000 O
   0.5525139500000000    0.8340555600000000    0.8388772000000000 O
   0.4474860500000000    0.1659444400000000    0.1611227999999990 O
   0.8455520000000000    0.8091688900000000    0.6962516900000000 O
   0.1477664600000000    0.4184602000000000    0.1404830800000000 O
   0.4187544500000000    0.8400985200000001    0.0356562000000000 O
   0.1829988300000000    0.1602261300000000    0.9855240600000000 O
   0.8170011700000001    0.8397738700000000    0.0144759400000000 O
   0.8300645800000001    0.1912332300000000    0.1301972300000000 O
   0.9474860500000000    0.8340555600000000    0.3388772000000000 O
   0.1544480000000000    0.1908311100000000    0.3037483100000000 O
   0.3170011700000000    0.1602261300000000    0.4855240600000000 O
   0.3522335400000000    0.4184602000000000    0.6404830800000000 O
   0.1699354200000000    0.8087667700000000    0.8698027700000001 O
   0.5812455500000000    0.1599014800000000    0.9643438000000000 O
