Pm1 Ti1 O3
1.0
   3.9201020000000000   -0.0004800000000000    0.0005570000000000
  -0.0004849999999990    3.9204889999999999   -0.0003239999999990
   0.0005670000000000   -0.0003219999999990    3.9201619999999999
Pm Ti O
1 1 3
direct
   0.9990610000000000    0.9998229999999991    0.0001189999999990 Pm
   0.4995790000000000    0.4934739999999990    0.5016470000000000 Ti
   0.9996300000000001    0.4911649999999990    0.5024919999999991 O
   0.4987790000000000    0.9930859999999990    0.5018990000000000 O
   0.5007410000000000    0.4911620000000000    0.0017549999999990 O
