Cu12 Sn4 Au4
1.0
   6.8583270000000001    0.0000000000000000    0.0000000000000000
   0.0000000000000000    6.8583270000000001    0.0000000000000000
   0.0000000000000000    0.0000000000000000    6.8583270000000001
Cu Sn Au
12 4 4
direct
   0.0823110000000000    0.8694569999999990    0.6636710000000000 Cu
   0.3363290000000000    0.5823110000000000    0.6305430000000000 Cu
   0.3694570000000000    0.8363290000000000    0.9176890000000000 Cu
   0.5823110000000000    0.6305430000000000    0.3363290000000000 Cu
   0.8363290000000000    0.9176890000000000    0.3694570000000000 Cu
   0.8694569999999990    0.6636710000000000    0.0823110000000000 Cu
   0.9176890000000000    0.3694570000000000    0.8363290000000000 Cu
   0.6636710000000000    0.0823110000000000    0.8694569999999990 Cu
   0.6305430000000000    0.3363290000000000    0.5823110000000000 Cu
   0.4176890000000000    0.1305430000000000    0.1636709999999990 Cu
   0.1636709999999990    0.4176890000000000    0.1305430000000000 Cu
   0.1305430000000000    0.1636709999999990    0.4176890000000000 Cu
   0.7795630000000000    0.2795630000000000    0.2204370000000000 Sn
   0.2795630000000000    0.2204370000000000    0.7795630000000000 Sn
   0.2204370000000000    0.7795630000000000    0.2795630000000000 Sn
   0.7204370000000000    0.7204370000000000    0.7204370000000000 Sn
   0.4807030000000000    0.9807030000000000    0.5192970000000000 Au
   0.9807030000000000    0.5192970000000000    0.4807030000000000 Au
   0.5192970000000000    0.4807030000000000    0.9807030000000000 Au
   0.0192969999999990    0.0192969999999990    0.0192969999999990 Au
