Ce1 Si3 Pt1
1.0
  -2.1584921900000000    2.1584921900000000    4.8146432499999996
   2.1584921900000000   -2.1584921900000000    4.8146432499999996
   2.1584921900000000    2.1584921900000000   -4.8146432499999996
Ce Si Pt
1 3 1
direct
   0.6004687500000000    0.6004687500000000    0.0000000000000000 Ce
   0.8642923400000000    0.3642923400000000    0.5000000000000000 Si
   0.3642923400000000    0.8642923400000000    0.5000000000000000 Si
   1.0002879099999999    1.0002879099999999    0.0000000000000000 Si
   0.2507566500000000    0.2507566500000000    0.0000000000000000 Pt
