K1 Mg1 Bi1 O3
1.0
   4.4839609999999999    0.0000000000000000    0.0000000000000000
   0.0000000000000000    5.4068509999999996    0.0000000000000000
   0.0000000000000000    0.0000000000000000    4.4839580000000003
K Mg Bi O
1 1 1 3
direct
   0.0000000000000000    0.0000000000000000    0.0000000000000000 K
   0.0000000000000000    0.5000000000000000    0.0000000000000000 Mg
   0.4999989999999990    0.4999989999999990    0.4999989999999990 Bi
   0.4999989999999990    0.4999989999999990    0.0000000000000000 O
   0.4999989999999990    0.0000000000000000    0.4999989999999990 O
   0.0000000000000000    0.4999989999999990    0.4999989999999990 O
