La1 Ga3 Cu1
1.0
  -2.1268668300000000    2.1268668300000000    5.2600980499999999
   2.1268668300000000   -2.1268668300000000    5.2600980499999999
   2.1268668300000000    2.1268668300000000   -5.2600980499999999
La Ga Cu
1 3 1
direct
  -0.0000000000000000   -0.0000000000000000    0.0000000000000000 La
   0.6199787900000000    0.6199787900000000   -0.0000000000000000 Ga
   0.3800212100000000    0.3800212100000000   -0.0000000000000000 Ga
   0.7500000000000000    0.2500000000000000    0.5000000000000000 Ga
   0.2500000000000000    0.7500000000000000    0.5000000000000000 Cu
