Mn8 Si8 O24
1.0
   9.1963311900000004    0.0000000000000000    0.0000000000000000
   0.0000000000000000    5.3803826099999998    0.0065389700000000
   0.0000000000000000    2.0321743200000002    9.3373575199999994
Mn Si O
8 8 24
direct
   0.4898172800000000    0.4963242000000000    0.7501863600000001 Mn
   0.9898172800000000    0.0036758000000000    0.2498136400000000 Mn
   0.5101827200000000    0.5036758000000000    0.2498136400000000 Mn
   0.0101827200000000    0.9963242000000000    0.7501863600000001 Mn
   0.8499395700000000    0.4964231900000000    0.7503853100000000 Mn
   0.3499395700000000    0.0035768100000000    0.2496146900000000 Mn
   0.1500604300000000    0.5035768100000000    0.2496146900000000 Mn
   0.6500604300000000    0.9964231900000000    0.7503853100000000 Mn
   0.6638728700000001    0.2206353500000000    0.0480454900000000 Si
   0.1638728700000000    0.2793646500000000    0.9519545100000000 Si
   0.3361271300000000    0.7793646500000000    0.9519545100000000 Si
   0.8361271300000001    0.7206353500000000    0.0480454900000000 Si
   0.1634087200000000    0.7274225400000001    0.5472750100000000 Si
   0.6634087200000001    0.7725774600000000    0.4527249900000000 Si
   0.8365912800000000    0.2725774600000000    0.4527249900000000 Si
   0.3365912800000000    0.2274225400000000    0.5472750100000000 Si
   0.7679682500000000    0.4332067200000000    0.1017117200000000 O
   0.2679682500000000    0.0667932800000000    0.8982882800000001 O
   0.2320317500000000    0.5667932800000001    0.8982882800000001 O
   0.7320317500000000    0.9332067200000000    0.1017117200000000 O
   0.5106060100000001    0.2386240500000000    0.1261169300000000 O
   0.0106060100000000    0.2613759500000000    0.8738830700000000 O
   0.4893939900000000    0.7613759500000000    0.8738830700000000 O
   0.9893939900000001    0.7386240500000000    0.1261169300000000 O
   0.6592610600000001    0.2837869600000000    0.8741217200000000 O
   0.1592610600000000    0.2162130400000000    0.1258782800000000 O
   0.3407389400000000    0.7162130400000000    0.1258782800000000 O
   0.8407389400000000    0.7837869600000000    0.8741217200000000 O
   0.2592612200000000    0.9481989800000000    0.6025638000000000 O
   0.7592612200000001    0.5518010200000000    0.3974361999999990 O
   0.7407387800000000    0.0518010200000000    0.3974361999999990 O
   0.2407387800000000    0.4481989800000000    0.6025638000000000 O
   0.3402328100000000    0.2898691800000000    0.3734315800000000 O
   0.8402328100000001    0.2101308200000000    0.6265684200000000 O
   0.6597671900000001    0.7101308200000001    0.6265684200000000 O
   0.1597671900000000    0.7898691800000001    0.3734315800000000 O
   0.0085369500000000    0.7331246700000000    0.6244785200000000 O
   0.9914630500000000    0.2668753300000000    0.3755214800000000 O
   0.5085369500000000    0.7668753300000000    0.3755214800000000 O
   0.4914630500000000    0.2331246700000000    0.6244785200000000 O
