Mo2 W2 Se6 S2
1.0
   1.6433679999999999   -2.8463970000000001    0.0000000000000000
   1.6433679999999999    2.8463970000000001    0.0000000000000000
   0.0000000000000000    0.0000000000000000   37.3649780000000007
Mo W Se S
2 2 6 2
direct
   0.0000000000000000    0.0000000000000000    0.0939079999999990 Mo
   0.0000000000000000    0.0000000000000000    0.4696519999999990 Mo
   0.3333330000000000    0.6666670000000000    0.2817880000000000 W
   0.3333330000000000    0.6666670000000000    0.6575369999999990 W
   0.0000000000000000    0.0000000000000000    0.3272089999999990 Se
   0.3333330000000000    0.6666670000000000    0.0487849999999990 Se
   0.3333330000000000    0.6666670000000000    0.4245450000000000 Se
   0.3333330000000000    0.6666670000000000    0.1390480000000000 Se
   0.3333330000000000    0.6666670000000000    0.5148039999999990 Se
   0.0000000000000000    0.0000000000000000    0.2363960000000000 Se
   0.0000000000000000    0.0000000000000000    0.6987920000000000 S
   0.0000000000000000    0.0000000000000000    0.6162839999999991 S
