Cd2 N2 Cl6
1.0
   7.4291650000000002    0.0000000000000000    0.0000000000000000
   0.0000000000000000    5.8736809999999995    0.0000000000000000
   0.0000000000000000    2.2894420000000002    7.3547789999999997
Cd N Cl
2 2 6
direct
   0.5000000000000000    0.0000000000000000    0.0000000000000000 Cd
   0.0000000000000000    0.0000000000000000    0.0000000000000000 Cd
   0.7500000000000000    0.6211050000000000    0.7072210000000000 N
   0.2500000000000000    0.3788950000000000    0.2927790000000000 N
   0.2500000000000000    0.1053200000000000    0.2438989999999990 Cl
   0.2500000000000000    0.6099289999999991    0.0835139999999990 Cl
   0.2500000000000000    0.1404760000000000    0.7680060000000000 Cl
   0.7500000000000000    0.8946800000000000    0.7561009999999990 Cl
   0.7500000000000000    0.3900710000000000    0.9164859999999990 Cl
   0.7500000000000000    0.8595240000000000    0.2319939999999990 Cl
