Cs2 Y2 Zn2 Te6
1.0
   4.4598379999999986    0.0000000000000000    0.0000000000000000
  -2.2299189999999989    8.5772460000000006    0.0000000000000000
   0.0000000000000000    0.0000000000000000   11.7940640000000005
Cs Y Zn Te
2 2 2 6
direct
   0.7450019999999991    0.4900040000000000    0.2500000000000000 Cs
   0.2549980000000000    0.5099960000000000    0.7500000000000000 Cs
   0.0000000000000000    0.0000000000000000    0.5000000000000000 Y
   0.0000000000000000    0.0000000000000000    0.0000000000000000 Y
   0.4601610000000000    0.9203220000000000    0.2500000000000000 Zn
   0.5398390000000000    0.0796780000000000    0.7500000000000000 Zn
   0.3791140000000000    0.7582280000000000    0.4426270000000000 Te
   0.6208859999999990    0.2417720000000000    0.5573730000000000 Te
   0.3791140000000000    0.7582280000000000    0.0573730000000000 Te
   0.6208859999999990    0.2417720000000000    0.9426270000000000 Te
   0.0578469999999990    0.1156939999999990    0.2500000000000000 Te
   0.9421529999999990    0.8843059999999990    0.7500000000000000 Te
