Sm1 Mg1 Ni1 O3
1.0
   3.7499019799999989    0.0000000000000000    0.0000000000000000
  -0.0000000000000000    6.8105119099999998   -0.0000000000000000
  -0.0000000000000000   -0.0000000000000000    3.7499019799999989
Sm Mg Ni O
1 1 1 3
direct
   0.5000000000000000    0.5000000000000000    0.5000000000000000 Sm
   0.5000000000000000   -0.0000000000000000    0.5000000000000000 Mg
   0.0000000000000000    0.0000000000000000   -0.0000000000000000 Ni
   0.5000000000000000   -0.0000000000000000   -0.0000000000000000 O
  -0.0000000000000000    0.5000000000000000    0.0000000000000000 O
  -0.0000000000000000   -0.0000000000000000    0.5000000000000000 O
