Mg2 V2 O6
1.0
   2.6682280000000000   -5.1335660000000001    0.0000000000000000
   2.6682280000000000    5.1335660000000001    0.0000000000000000
   0.0000000000000000    0.0000000000000000    5.3110989999999996
Mg V O
2 2 6
direct
   0.4250310000000000    0.5749690000000000    0.5083869999999990 Mg
   0.5749690000000000    0.4250310000000000    0.0083870000000000 Mg
   0.0697750000000000    0.9302250000000000    0.5128760000000000 V
   0.9302250000000000    0.0697750000000000    0.0128759999999990 V
   0.2367709999999990    0.2409750000000000    0.7609150000000000 O
   0.7590249999999999    0.7632289999999990    0.7609150000000000 O
   0.7632289999999990    0.7590249999999999    0.2609150000000000 O
   0.2409750000000000    0.2367709999999990    0.2609150000000000 O
   0.2343410000000000    0.7656590000000000    0.5209060000000000 O
   0.7656590000000000    0.2343410000000000    0.0209059999999990 O
