Rb1 Tl1 O3
1.0
   4.4657359999999997    0.0000000000000000    0.0000000000000000
   0.0000000000000000    4.4657359999999997    0.0000000000000000
   0.0000000000000000    0.0000000000000000    4.4657359999999997
Rb Tl O
1 1 3
direct
   0.0000000000000000    0.0000000000000000    0.0000000000000000 Rb
   0.5000000000000000    0.5000000000000000    0.5000000000000000 Tl
   0.5000000000000000    0.5000000000000000    0.0000000000000000 O
   0.5000000000000000    0.0000000000000000    0.5000000000000000 O
   0.0000000000000000    0.5000000000000000    0.5000000000000000 O
