Co4 Ge4 O12
1.0
   5.1026823500000003   -0.0061577500000000    0.7256592800000000
   0.8673741500000001    6.5206900100000000    0.4658634800000000
  -0.0135863800000000   -0.0142002999999990    6.5943638399999998
Co Ge O
4 4 12
direct
   0.2500307900000000    0.0923629500000000    0.9076326800000000 Co
   0.7500167800000000    0.2671910500000000    0.7328873800000000 Co
   0.7499774000000000    0.9076468000000000    0.0923298999999990 Co
   0.2499879600000000    0.7328436100000000    0.2671291700000000 Co
   0.7123921900000000    0.7925496200000001    0.6036697500000000 Ge
   0.2123922400000000    0.6036868600000000    0.7925634500000001 Ge
   0.7875770800000000    0.3963087800000000    0.2074507100000000 Ge
   0.2876502200000000    0.2074392300000000    0.3963355200000000 Ge
   0.4047117400000000    0.7067792300000000    0.5693667700000000 O
   0.0952312000000000    0.4306389100000000    0.2932478600000000 O
   0.8844568800000000    0.8626189400000001    0.3714433600000000 O
   0.6344076200000001    0.9729814800000001    0.7929727400000001 O
   0.1345768000000000    0.7929787900000000    0.9729972200000000 O
   0.5952785200000000    0.2932257600000000    0.4306342200000000 O
   0.9047752200000000    0.5693647200000000    0.7067679900000000 O
   0.6156098100000000    0.6285461300000000    0.1373137100000000 O
   0.3843603900000000    0.3714429999999990    0.8626820400000000 O
   0.3655734300000000    0.0270350400000000    0.2070132800000000 O
   0.8654129300000000    0.2069979700000000    0.0270110400000000 O
   0.1155767900000000    0.1373611400000000    0.6285542200000001 O
