La4 Co4 O12
1.0
   1.5410159999999999    4.5593969999999997    2.6586780000000001
  -4.8045340000000003    0.0086870000000000    2.8589609999999999
   3.1968329999999998   -4.5505030000000000    5.4591180000000001
La Co O
4 4 12
direct
   0.2483200000000000    0.7532409999999991    0.5030180000000000 La
   0.7499350000000000    0.2462150000000000    0.9992439999999991 La
   0.7500660000000000    0.2537840000000000    0.5007590000000000 La
   0.2516810000000000    0.7467590000000000    0.9969800000000001 La
   0.2500000000000000    0.2500000000000000    0.7500000000000000 Co
   0.7500000000000000    0.7500000000000000    0.7500000000000000 Co
   0.7500000000000000    0.7500000000000000    0.2500000000000000 Co
   0.2500000000000000    0.2500000000000000    0.2500000000000000 Co
   0.9575600000000001    0.0424890000000000    0.2830689999999990 O
   0.4630500000000000    0.5213550000000000    0.7842249999999999 O
   0.0369500000000000    0.9786450000000000    0.7157749999999991 O
   0.5424400000000000    0.4575120000000000    0.2169319999999990 O
   0.7526220000000000    0.6886580000000000    0.4949369999999990 O
   0.2581270000000000    0.1777149999999990    0.9900979999999990 O
   0.2418729999999990    0.3222850000000000    0.5099030000000000 O
   0.7473780000000000    0.8113420000000000    0.0050630000000000 O
   0.5244900000000000    0.0393030000000000    0.7148730000000000 O
   0.0493400000000000    0.5317000000000001    0.2177760000000000 O
   0.4506610000000000    0.9683010000000000    0.2822240000000000 O
   0.9755100000000001    0.4606960000000000    0.7851270000000000 O
