Li1 Eu1 O3
1.0
   3.7634559999999988    0.0000000000000000    0.0000000000000000
   0.0000000000000000    3.7634559999999988    0.0000000000000000
   0.0000000000000000    0.0000000000000000    3.7634559999999988
Li Eu O
1 1 3
direct
   0.0000000000000000    0.0000000000000000    0.0000000000000000 Li
   0.5000000000000000    0.5000000000000000    0.5000000000000000 Eu
   0.0000000000000000    0.0000000000000000    0.5000000000000000 O
   0.0000000000000000    0.5000000000000000    0.0000000000000000 O
   0.5000000000000000    0.0000000000000000    0.0000000000000000 O
