Ce8 Sn24 Ru8
1.0
   9.8310800000000000    0.0000000000000000    0.0000000000000000
   0.0000000000000000    9.8310800000000000    0.0000000000000000
   0.0000000000000000    0.0000000000000000    9.8310800000000000
Ce Sn Ru
8 24 8
direct
   0.0000000000000000    0.5000000000000000    0.7500000000000000 Ce
   0.5000000000000000    0.2500000000000000    0.0000000000000000 Ce
   0.7500000000000000    0.0000000000000000    0.5000000000000000 Ce
   0.0000000000000000    0.5000000000000000    0.2500000000000000 Ce
   0.5000000000000000    0.7500000000000000    0.0000000000000000 Ce
   0.2500000000000000    0.0000000000000000    0.5000000000000000 Ce
   0.5000000000000000    0.5000000000000000    0.5000000000000000 Ce
   0.0000000000000000    0.0000000000000000    0.0000000000000000 Ce
   0.8174549999999990    0.3442400000000000    0.5000000000000000 Sn
   0.6557600000000000    0.5000000000000000    0.8174549999999990 Sn
   0.5000000000000000    0.1825449999999990    0.6557600000000000 Sn
   0.1825449999999990    0.6557600000000000    0.5000000000000000 Sn
   0.3442400000000000    0.5000000000000000    0.1825449999999990 Sn
   0.5000000000000000    0.8174549999999990    0.3442400000000000 Sn
   0.8174549999999990    0.6557600000000000    0.5000000000000000 Sn
   0.6557600000000000    0.5000000000000000    0.1825449999999990 Sn
   0.1825449999999990    0.3442400000000000    0.5000000000000000 Sn
   0.3442400000000000    0.5000000000000000    0.8174549999999990 Sn
   0.5000000000000000    0.8174549999999990    0.6557600000000000 Sn
   0.5000000000000000    0.1825449999999990    0.3442400000000000 Sn
   0.3174550000000000    0.0000000000000000    0.8442400000000001 Sn
   0.1557600000000000    0.3174550000000000    0.0000000000000000 Sn
   0.0000000000000000    0.1557600000000000    0.6825450000000000 Sn
   0.6825450000000000    0.0000000000000000    0.1557600000000000 Sn
   0.8442400000000001    0.6825450000000000    0.0000000000000000 Sn
   0.0000000000000000    0.8442400000000001    0.3174550000000000 Sn
   0.3174550000000000    0.0000000000000000    0.1557600000000000 Sn
   0.1557600000000000    0.6825450000000000    0.0000000000000000 Sn
   0.6825450000000000    0.0000000000000000    0.8442400000000001 Sn
   0.8442400000000001    0.3174550000000000    0.0000000000000000 Sn
   0.0000000000000000    0.1557600000000000    0.3174550000000000 Sn
   0.0000000000000000    0.8442400000000001    0.6825450000000000 Sn
   0.7500000000000000    0.2500000000000000    0.7500000000000000 Ru
   0.2500000000000000    0.7500000000000000    0.2500000000000000 Ru
   0.7500000000000000    0.7500000000000000    0.2500000000000000 Ru
   0.2500000000000000    0.2500000000000000    0.7500000000000000 Ru
   0.2500000000000000    0.7500000000000000    0.7500000000000000 Ru
   0.7500000000000000    0.2500000000000000    0.2500000000000000 Ru
   0.2500000000000000    0.2500000000000000    0.2500000000000000 Ru
   0.7500000000000000    0.7500000000000000    0.7500000000000000 Ru
