La1 Ti1 O3
1.0
   3.9589379999999998    0.0000000000000000    0.0000000000000000
   0.0000000000000000    3.9589379999999998    0.0000000000000000
   0.0000000000000000    0.0000000000000000    3.9589379999999998
La Ti O
1 1 3
direct
   0.0000000000000000    0.0000000000000000    0.0000000000000000 La
   0.5000000000000000    0.5000000000000000    0.5000000000000000 Ti
   0.0000000000000000    0.5000000000000000    0.5000000000000000 O
   0.5000000000000000    0.0000000000000000    0.5000000000000000 O
   0.5000000000000000    0.5000000000000000    0.0000000000000000 O
