Ba5 Mn5 O15
1.0
  11.9844595300000005   -2.8533218100000002   -0.0174077900000000
  11.9844595300000005    2.8533218100000002   -0.0174077900000000
  11.3122375300000009    0.0000000000000000    4.8787601800000004
Ba Mn O
5 5 15
direct
   0.7352741600000000    0.7352741600000000    0.7352741600000000 Ba
   0.8658761100000000    0.8658761100000000    0.8658761100000000 Ba
  -0.0000000000000000   -0.0000000000000000    0.0000000000000000 Ba
   0.1341238900000000    0.1341238900000000    0.1341238900000000 Ba
   0.2647258400000000    0.2647258400000000    0.2647258400000000 Ba
   0.5691402700000000    0.5691402700000000    0.5691402700000000 Mn
   0.6389219700000001    0.6389219700000001    0.6389219700000001 Mn
   0.3610780300000000    0.3610780300000000    0.3610780300000000 Mn
   0.4308597300000000    0.4308597300000000    0.4308597300000000 Mn
   0.5000000000000000    0.5000000000000000    0.5000000000000000 Mn
   0.8303616900000000    0.3859428200000000    0.3859428200000000 O
   0.3859428200000000    0.3859428200000000    0.8303616900000000 O
   0.3859428200000000    0.8303616900000000    0.3859428200000000 O
  -0.0000000000000000    0.5000000000000000    0.5000000000000000 O
   0.5000000000000000   -0.0000000000000000    0.5000000000000000 O
   0.5000000000000000    0.5000000000000000    0.0000000000000000 O
   0.6140571800000000    0.1696383100000000    0.6140571800000000 O
   0.6140571800000000    0.6140571800000000    0.1696383100000000 O
   0.1696383100000000    0.6140571800000000    0.6140571800000000 O
   0.2510973700000000    0.2510973700000000    0.6891041600000000 O
   0.6891041600000000    0.2510973700000000    0.2510973700000000 O
   0.2510973700000000    0.6891041600000000    0.2510973700000000 O
   0.7489026300000000    0.3108958400000000    0.7489026300000000 O
   0.7489026300000000    0.7489026300000000    0.3108958400000000 O
   0.3108958400000000    0.7489026300000000    0.7489026300000000 O
