Ba4 V4 S12
1.0
   6.2775445500000000    0.0107123400000000    2.6397613299999998
   3.0611172700000000    8.3263674499999993    1.5374150100000001
  -0.1060972600000000    0.0398008300000000    8.9729580099999993
Ba V S
4 4 12
direct
   0.3316347400000000    0.5374369400000000    0.7989346100000000 Ba
   0.6622814700000000    0.9561319600000000    0.7185143400000000 Ba
   0.3317648600000000    0.0374245200000000    0.2988746900000000 Ba
   0.6621703000000000    0.4563618600000000    0.2187337500000000 Ba
   0.9567869700000000    0.8133410300000000    0.2734833100000000 V
   0.0378524000000000    0.4820509100000000    0.4421968200000000 V
   0.9567128800000000    0.3130907800000000    0.7736818999999990 V
   0.0377405400000000    0.9820639900000000    0.9423013800000000 V
   0.8011761400000000    0.0619813600000000    0.3362776800000000 S
   0.1936707700000000    0.4195409000000000    0.1931600100000000 S
   0.8011969300000000    0.5618501100000000    0.8361129200000000 S
   0.1935191000000000    0.9197314100000000    0.6932913500000000 S
   0.2941087100000000    0.8089927800000000    0.0679490500000000 S
   0.8289312200000000    0.8101899700000000    0.0669640200000000 S
   0.7005461100000000    0.6886245900000000    0.4454213300000000 S
   0.1656505100000000    0.6872527300000000    0.4466342900000000 S
   0.2940604400000000    0.3089768800000000    0.5680675700000000 S
   0.8288328800000000    0.3102160500000000    0.5670327100000000 S
   0.7004245200000000    0.1884612500000000    0.9457144600000000 S
   0.1653405000000000    0.1871779800000000    0.9469538000000000 S
