Cs2 Sm2 Mn2 Se6
1.0
   4.2901679999999986    0.0000000000000000    0.0000000000000000
  -2.1450839999999989    8.0937230000000007    0.0000000000000000
   0.0000000000000000    0.0000000000000000   11.3189119999999992
Cs Sm Mn Se
2 2 2 6
direct
   0.2596230000000000    0.5192460000000000    0.2500000000000000 Cs
   0.7403770000000000    0.4807539999999990    0.7500000000000000 Cs
   0.0000000000000000    0.0000000000000000    0.0000000000000000 Sm
   0.0000000000000000    0.0000000000000000    0.5000000000000000 Sm
   0.5394280000000000    0.0788560000000000    0.2500000000000000 Mn
   0.4605720000000000    0.9211440000000000    0.7500000000000000 Mn
   0.6182500000000001    0.2365000000000000    0.4385759999999990 Se
   0.3817500000000000    0.7635000000000001    0.5614239999999990 Se
   0.3817500000000000    0.7635000000000001    0.9385760000000000 Se
   0.9476990000000000    0.8953979999999990    0.2500000000000000 Se
   0.0523010000000000    0.1046020000000000    0.7500000000000000 Se
   0.6182500000000001    0.2365000000000000    0.0614240000000000 Se
