Rb2 Au2 Br6
1.0
   6.6926141799999996    0.0000000000000000    3.1588591899999998
   2.5566115800000002    6.0742748700000000    3.2525430100000001
   0.0824209600000000    0.1531897200000000    8.4945641300000005
Rb Au Br
2 2 6
direct
   0.2722859900000000    0.2270596500000000    0.2283673700000000 Rb
   0.7277140100000000    0.7729403500000001    0.7716326300000000 Rb
   0.0000000000000000    0.0000000000000000    0.0000000000000000 Au
   0.5000000000000000    0.5000000000000000    0.5000000000000000 Au
   0.2003291900000000    0.2528224600000000    0.8187247100000000 Br
   0.2718753600000000    0.7471775400000000    0.1812752900000000 Br
   0.7996708100000001    0.7471775400000000    0.1812752900000000 Br
   0.7281246400000000    0.2528224600000000    0.8187247100000000 Br
   0.7179641800000001    0.2060310800000000    0.3580395700000000 Br
   0.2820358200000000    0.7939689200000000    0.6419604300000000 Br
