Mn4 C4 O12
1.0
   5.3351769999999998    0.0000000000000000    0.0000000000000000
   0.0000000000000000    5.9707819999999998    0.0000000000000000
   0.0000000000000000    0.5936420000000000    6.9140100000000002
Mn C O
4 4 12
direct
   0.2270130000000000    0.4108770000000000    0.9052490000000000 Mn
   0.7270130000000000    0.5891230000000000    0.5947509999999990 Mn
   0.7729870000000000    0.5891230000000000    0.0947510000000000 Mn
   0.2729870000000000    0.4108770000000000    0.4052489999999990 Mn
   0.3986460000000000    0.9329100000000001    0.9518770000000000 C
   0.8986459999999999    0.0670900000000000    0.5481230000000000 C
   0.6013539999999991    0.0670900000000000    0.0481230000000000 C
   0.1013540000000000    0.9329100000000001    0.4518770000000000 C
   0.4437390000000000    0.7203990000000000    0.9573879999999991 O
   0.9437390000000000    0.2796010000000000    0.5426120000000000 O
   0.5562610000000000    0.2796010000000000    0.0426120000000000 O
   0.0562610000000000    0.7203990000000000    0.4573879999999990 O
   0.2126650000000000    0.0334550000000000    0.8786959999999990 O
   0.7126650000000000    0.9665450000000000    0.6213040000000000 O
   0.7873350000000000    0.9665450000000000    0.1213040000000000 O
   0.2873350000000000    0.0334550000000000    0.3786960000000000 O
   0.9120300000000001    0.5731539999999991    0.8390400000000001 O
   0.4120300000000000    0.4268460000000000    0.6609600000000001 O
   0.0879700000000000    0.4268460000000000    0.1609600000000000 O
   0.5879700000000000    0.5731539999999991    0.3390400000000000 O
