K4 Cu4 Cl12
1.0
   4.0598016699999997    0.0149899400000000    0.0000000000000000
  -1.1110499599999999    8.6450778300000000    0.0000000000000000
   0.0000000000000000    0.0000000000000000   13.7634489700000007
K Cu Cl
4 4 12
direct
   0.2168205300000000    0.4418762000000000    0.8307948700000000 K
   0.7831794700000000    0.0581237999999990    0.3307948700000000 K
   0.7831794700000000    0.5581237999999999    0.1692051300000000 K
   0.2168205300000000    0.9418761999999991    0.6692051300000000 K
   0.7623171300000000    0.3433270000000000    0.5497230400000001 Cu
   0.2376828700000000    0.1566730000000000    0.0497230400000000 Cu
   0.2376828700000000    0.6566730000000000    0.4502769600000000 Cu
   0.7623171300000000    0.8433269999999990    0.9502769600000001 Cu
   0.6761048500000000    0.3203348600000000    0.9923641600000001 Cl
   0.8237773600000000    0.9650542300000000    0.0991419700000000 Cl
   0.8237773600000000    0.4650542300000000    0.4008580300000000 Cl
   0.1762226400000000    0.0349457700000000    0.9008580300000000 Cl
   0.7260223300000000    0.7365174500000000    0.8008295400000001 Cl
   0.2739776700000000    0.7634825500000000    0.3008295400000000 Cl
   0.2739776700000000    0.2634825500000000    0.1991704600000000 Cl
   0.3238951500000000    0.1796651400000000    0.4923641600000000 Cl
   0.3238951500000000    0.6796651400000000    0.0076358400000000 Cl
   0.6761048500000000    0.8203348600000000    0.5076358400000001 Cl
   0.7260223300000000    0.2365174500000000    0.6991704600000000 Cl
   0.1762226400000000    0.5349457700000000    0.5991419700000000 Cl
