Ca20 Sn20 S60
1.0
   0.0000000000000000    0.0000000000000000   13.2127759999999999
  14.5818030000000007   -0.0000010000000000    0.0000000000000000
   0.0000010000000000   14.5818030000000007    0.0000000000000000
Ca Sn S
20 20 60
direct
   0.4446270000000000    0.7529500000000000    0.2679390000000000 Ca
   0.9446270000000000    0.2470500000000000    0.7320610000000000 Ca
   0.1946270000000000    0.2679390000000000    0.2470500000000000 Ca
   0.6946270000000000    0.7320610000000000    0.7529500000000000 Ca
   0.7091109999999990    0.2697460000000000    0.2873800000000000 Ca
   0.2091110000000000    0.7302540000000000    0.7126209999999999 Ca
   0.4591110000000000    0.2873800000000000    0.7302540000000000 Ca
   0.9591109999999990    0.7126209999999999    0.2697460000000000 Ca
   0.4888829999999990    0.8372179999999990    0.5553979999999999 Ca
   0.9888830000000000    0.1627819999999990    0.4446020000000000 Ca
   0.2388829999999990    0.5553979999999999    0.1627819999999990 Ca
   0.7388830000000000    0.4446020000000000    0.8372179999999990 Ca
   0.6944779999999990    0.9659930000000000    0.3399379999999990 Ca
   0.1944779999999990    0.0340069999999990    0.6600619999999990 Ca
   0.4444780000000000    0.3399379999999990    0.0340069999999990 Ca
   0.9444779999999990    0.6600619999999990    0.9659930000000000 Ca
   0.7032900000000001    0.5376759999999990    0.1234150000000000 Ca
   0.2032900000000000    0.4623239999999990    0.8765849999999999 Ca
   0.4532900000000000    0.1234150000000000    0.4623239999999990 Ca
   0.9532900000000001    0.8765849999999999    0.5376759999999990 Ca
   0.7556950000000000    0.7296990000000000    0.4358510000000000 Sn
   0.2556950000000000    0.2703010000000000    0.5641490000000000 Sn
   0.5056950000000000    0.4358510000000000    0.2703010000000000 Sn
   0.0056949999999990    0.5641490000000000    0.7296990000000000 Sn
   0.2265569999999990    0.8037559999999990    0.0923440000000000 Sn
   0.7265570000000000    0.1962440000000000    0.9076559999999990 Sn
   0.9765570000000000    0.0923440000000000    0.1962440000000000 Sn
   0.4765569999999991    0.9076559999999990    0.8037559999999990 Sn
   0.4514689999999990    0.6290430000000000    0.9366549999999991 Sn
   0.9514690000000000    0.3709570000000000    0.0633450000000000 Sn
   0.2014689999999990    0.9366549999999991    0.3709570000000000 Sn
   0.7014690000000000    0.0633450000000000    0.6290430000000000 Sn
   0.8125110000000000    0.8759220000000000    0.0731140000000000 Sn
   0.3125110000000000    0.1240780000000000    0.9268860000000000 Sn
   0.5625110000000000    0.0731140000000000    0.1240780000000000 Sn
   0.0625110000000000    0.9268860000000000    0.8759220000000000 Sn
   0.1932990000000000    0.6422450000000000    0.4390400000000000 Sn
   0.6932990000000000    0.3577550000000000    0.5609600000000000 Sn
   0.9432990000000000    0.4390400000000000    0.3577550000000000 Sn
   0.4432990000000000    0.5609600000000000    0.6422450000000000 Sn
   0.3501680000000000    0.5056140000000000    0.0039080000000000 S
   0.8501679999999990    0.4943860000000000    0.9960920000000000 S
   0.1001680000000000    0.0039080000000000    0.4943860000000000 S
   0.6001679999999990    0.9960920000000000    0.5056140000000000 S
   0.6216739999999999    0.5724250000000000    0.9428139999999990 S
   0.1216739999999990    0.4275750000000000    0.0571860000000000 S
   0.3716740000000000    0.9428139999999990    0.4275750000000000 S
   0.8716739999999999    0.0571860000000000    0.5724250000000000 S
   0.0918279999999990    0.6977780000000000    0.1143670000000000 S
   0.5918280000000000    0.3022220000000000    0.8856330000000000 S
   0.8418279999999990    0.1143670000000000    0.3022220000000000 S
   0.3418279999999990    0.8856330000000000    0.6977780000000000 S
   0.3860840000000000    0.7193060000000000    0.0834290000000000 S
   0.8860840000000000    0.2806940000000000    0.9165709999999990 S
   0.1360839999999990    0.0834290000000000    0.2806940000000000 S
   0.6360840000000000    0.9165709999999990    0.7193060000000000 S
   0.2240200000000000    0.8751559999999990    0.9410830000000000 S
   0.7240200000000001    0.1248440000000000    0.0589170000000000 S
   0.9740200000000001    0.9410830000000000    0.1248440000000000 S
   0.4740200000000001    0.0589170000000000    0.8751559999999990 S
   0.5556829999999990    0.5907920000000000    0.2435280000000000 S
   0.0556829999999990    0.4092079999999990    0.7564719999999990 S
   0.3056830000000000    0.2435280000000000    0.4092079999999990 S
   0.8056829999999990    0.7564719999999990    0.5907920000000000 S
   0.8595659999999991    0.8511550000000000    0.3618690000000000 S
   0.3595660000000000    0.1488450000000000    0.6381310000000000 S
   0.6095659999999991    0.3618690000000000    0.1488450000000000 S
   0.1095660000000000    0.6381310000000000    0.8511550000000000 S
   0.5947330000000000    0.7966380000000000    0.3889470000000000 S
   0.0947330000000000    0.2033620000000000    0.6110530000000000 S
   0.3447330000000000    0.3889470000000000    0.2033620000000000 S
   0.8447330000000000    0.6110530000000000    0.7966380000000000 S
   0.8103230000000000    0.5902250000000000    0.3540350000000000 S
   0.3103229999999990    0.4097750000000000    0.6459650000000000 S
   0.5603230000000000    0.3540350000000000    0.4097750000000000 S
   0.0603229999999990    0.6459650000000000    0.5902250000000000 S
   0.8151969999999999    0.7172390000000000    0.1164340000000000 S
   0.3151970000000000    0.2827610000000000    0.8835660000000000 S
   0.5651969999999999    0.1164340000000000    0.2827610000000000 S
   0.0651969999999990    0.8835660000000000    0.7172390000000000 S
   0.5439849999999991    0.7817959999999990    0.8928210000000000 S
   0.0439849999999990    0.2182039999999990    0.1071790000000000 S
   0.2939850000000000    0.8928210000000000    0.2182039999999990 S
   0.7939849999999991    0.1071790000000000    0.7817959999999990 S
   0.6368600000000001    0.9116820000000000    0.1390630000000000 S
   0.1368600000000000    0.0883180000000000    0.8609370000000000 S
   0.3868600000000000    0.1390630000000000    0.0883180000000000 S
   0.8868600000000001    0.8609370000000000    0.9116820000000000 S
   0.1043930000000000    0.7889440000000000    0.4039970000000000 S
   0.6043930000000000    0.2110560000000000    0.5960029999999999 S
   0.8543930000000000    0.4039970000000000    0.2110560000000000 S
   0.3543929999999990    0.5960029999999999    0.7889440000000000 S
   0.3270349999999990    0.6768040000000000    0.5576420000000000 S
   0.8270350000000000    0.3231960000000000    0.4423580000000000 S
   0.0770349999999990    0.5576420000000000    0.3231960000000000 S
   0.5770350000000000    0.4423580000000000    0.6768040000000000 S
   0.3241120000000000    0.6143179999999990    0.3267750000000000 S
   0.8241120000000000    0.3856819999999990    0.6732250000000000 S
   0.0741120000000000    0.3267750000000000    0.3856819999999990 S
   0.5741120000000000    0.6732250000000000    0.6143179999999990 S
