Y4 B4 O12
1.0
   4.5203790000000001    0.0000000000000000    0.0000000000000000
  -4.5203790000000001    6.4806640000000000    0.0000000000000000
   0.0000000000000000    0.0000000000000000    8.4755400000000005
Y B O
4 4 12
direct
   0.0000000000000000    0.5000000000000000    0.0000000000000000 Y
   0.0000000000000000    0.5000000000000000    0.5000000000000000 Y
   0.0000000000000000    0.0000000000000000    0.0000000000000000 Y
   0.0000000000000000    0.0000000000000000    0.5000000000000000 Y
   0.3301310000000000    0.8668150000000000    0.2500000000000000 B
   0.4034979999999990    0.3668150000000000    0.2500000000000000 B
   0.5965020000000000    0.6331850000000000    0.7500000000000000 B
   0.6698689999999990    0.1331850000000000    0.7500000000000000 B
   0.4197869999999990    0.8223349999999990    0.1060390000000000 O
   0.4197869999999990    0.8223349999999990    0.3939610000000000 O
   0.2297519999999990    0.5430060000000000    0.7500000000000000 O
   0.8562600000000000    0.0430059999999990    0.7500000000000000 O
   0.2248840000000000    0.3223350000000000    0.1060390000000000 O
   0.7751159999999990    0.6776650000000000    0.8939610000000000 O
   0.7751159999999990    0.6776650000000000    0.6060390000000000 O
   0.2248840000000000    0.3223350000000000    0.3939610000000000 O
   0.1437400000000000    0.9569940000000000    0.2500000000000000 O
   0.7702479999999990    0.4569939999999990    0.2500000000000000 O
   0.5802130000000000    0.1776650000000000    0.8939610000000000 O
   0.5802130000000000    0.1776650000000000    0.6060390000000000 O
