Li4 Sb4 O12
1.0
   4.8799398800000002   -0.0000000000000000    0.0000000000000000
   0.0000000000000000    5.1912519799999997    0.0000000000000000
   0.0000000000000000    0.0000000000000000    8.5066969500000003
Li Sb O
4 4 12
direct
   0.0000000000000000    0.7500000000000000    0.3065667700000000 Li
   0.5000000000000000    0.7500000000000000    0.1934332300000000 Li
   0.0000000000000000    0.2500000000000000    0.6934332300000000 Li
   0.5000000000000000    0.2500000000000000    0.8065667700000000 Li
   0.0000000000000000    0.7500000000000000    0.9054536400000001 Sb
   0.5000000000000000    0.2500000000000000    0.4054536400000000 Sb
   0.0000000000000000    0.2500000000000000    0.0945463600000000 Sb
   0.5000000000000000    0.7500000000000000    0.5945463600000001 Sb
   0.7078530000000000    0.5757279000000000    0.4187672200000000 O
   0.7921469999999990    0.5757279000000000    0.0812327800000000 O
   0.2921470000000000    0.9242720999999990    0.4187672200000000 O
   0.2500000000000000    0.4097347999999990    0.2500000000000000 O
   0.7500000000000000    0.5902651999999990    0.7500000000000000 O
   0.2500000000000000    0.9097348000000000    0.7500000000000000 O
   0.7921469999999990    0.0757279000000000    0.9187672200000000 O
   0.7500000000000000    0.0902651999999990    0.2500000000000000 O
   0.2078529999999990    0.4242721000000000    0.9187672200000000 O
   0.2921470000000000    0.4242721000000000    0.5812327800000000 O
   0.7078530000000000    0.0757279000000000    0.5812327800000000 O
   0.2078529999999990    0.9242720999999990    0.0812327800000000 O
