La3 Al1 C1
1.0
   5.2051309999999997    0.0000000000000000    0.0000000000000000
   0.0000000000000000    5.2051309999999997    0.0000000000000000
   0.0000000000000000    0.0000000000000000    5.2051309999999997
La Al C
3 1 1
direct
   0.5000000000000000    0.5000000000000000    0.0000000000000000 La
   0.5000000000000000    0.0000000000000000    0.5000000000000000 La
   0.0000000000000000    0.5000000000000000    0.5000000000000000 La
   0.0000000000000000    0.0000000000000000    0.0000000000000000 Al
   0.5000000000000000    0.5000000000000000    0.5000000000000000 C
