Mn8 P8 H8 O24
1.0
  -6.7296139999999998    0.0000000000000000    4.6380780000000001
   0.0000000000000000   -8.4216449999999998    0.0000000000000000
   6.7149859999999997    0.0000000000000000    5.8872600000000004
Mn P H O
8 8 8 24
direct
   0.5551180000000000    0.1318180000000000    0.3745509999999990 Mn
   0.9448820000000000    0.6318180000000000    0.1254490000000000 Mn
   0.4448820000000000    0.8681820000000000    0.6254489999999990 Mn
   0.0551180000000000    0.3681820000000000    0.8745510000000000 Mn
   0.5104280000000000    0.7115629999999999    0.9865700000000001 Mn
   0.9895720000000000    0.2115630000000000    0.5134300000000001 Mn
   0.4895719999999991    0.2884370000000000    0.0134300000000000 Mn
   0.0104280000000000    0.7884369999999991    0.4865700000000001 Mn
   0.7780009999999991    0.9887469999999990    0.1880300000000000 P
   0.7219989999999999    0.4887470000000000    0.3119700000000000 P
   0.2219990000000000    0.0112529999999990    0.8119700000000001 P
   0.2780010000000000    0.5112530000000000    0.6880300000000000 P
   0.7852990000000000    0.6509710000000000    0.7377100000000001 P
   0.7147009999999990    0.1509710000000000    0.7622900000000000 P
   0.2147010000000000    0.3490290000000000    0.2622900000000000 P
   0.2852989999999990    0.8490289999999990    0.2377100000000000 P
   0.8943909999999990    0.0739300000000000    0.1264870000000000 H
   0.6056090000000000    0.5739300000000001    0.3735130000000000 H
   0.1056090000000000    0.9260700000000001    0.8735130000000000 H
   0.3943910000000000    0.4260700000000001    0.6264870000000000 H
   0.7376520000000000    0.5132610000000000    0.6483409999999999 H
   0.7623479999999990    0.0132610000000000    0.8516589999999991 H
   0.2623479999999990    0.4867390000000000    0.3516590000000000 H
   0.2376520000000000    0.9867389999999990    0.1483410000000000 H
   0.7529210000000000    0.8248190000000000    0.1079390000000000 O
   0.7470789999999990    0.3248189999999990    0.3920610000000000 O
   0.2470790000000000    0.1751810000000000    0.8920610000000000 O
   0.2529210000000000    0.6751809999999990    0.6079390000000000 O
   0.8489209999999990    0.9823830000000000    0.3662720000000000 O
   0.6510790000000000    0.4823829999999991    0.1337279999999990 O
   0.1510790000000000    0.0176170000000000    0.6337280000000000 O
   0.3489210000000000    0.5176170000000000    0.8662719999999990 O
   0.6228669999999999    0.7164990000000000    0.7756740000000000 O
   0.8771329999999991    0.2164990000000000    0.7243259999999990 O
   0.3771330000000000    0.2835010000000000    0.2243260000000000 O
   0.1228669999999990    0.7835010000000000    0.2756740000000000 O
   0.9116000000000001    0.5914180000000000    0.8871040000000000 O
   0.5884000000000000    0.0914180000000000    0.6128960000000000 O
   0.0884000000000000    0.4085820000000000    0.1128960000000000 O
   0.4116000000000000    0.9085820000000000    0.3871040000000000 O
   0.3621600000000000    0.7315050000000000    0.1456279999999990 O
   0.1378400000000000    0.2315050000000000    0.3543719999999990 O
   0.6378400000000001    0.2684950000000000    0.8543719999999990 O
   0.8621600000000000    0.7684949999999990    0.6456280000000000 O
   0.6106170000000000    0.0829290000000000    0.1535750000000000 O
   0.8893829999999990    0.5829289999999990    0.3464250000000000 O
   0.3893830000000000    0.9170710000000000    0.8464250000000000 O
   0.1106170000000000    0.4170709999999990    0.6535750000000000 O
