Li4 Cu4 F12
1.0
   3.4977100000000001   -3.7001080000000002    0.0000000000000000
   3.4977100000000001    3.7001080000000002    0.0000000000000000
   0.0000000000000000    0.0000000000000000    8.7611790000000003
Li Cu F
4 4 12
direct
   0.0443470000000000    0.5276189999999999    0.5000000000000000 Li
   0.4723810000000000    0.9556530000000000    0.5000000000000000 Li
   0.5185290000000000    0.4814710000000000    0.5000000000000000 Li
   0.9819540000000000    0.0180460000000000    0.0000000000000000 Li
   0.5089110000000000    0.4910890000000000    0.8320250000000000 Cu
   0.5089110000000000    0.4910890000000000    0.1679749999999990 Cu
   0.9923569999999990    0.0076430000000000    0.6838800000000000 Cu
   0.9923569999999990    0.0076430000000000    0.3161200000000000 Cu
   0.1886390000000000    0.1880270000000000    0.5000000000000000 F
   0.1974580000000000    0.1941109999999990    0.8306610000000000 F
   0.1974580000000000    0.1941109999999990    0.1693390000000000 F
   0.3212150000000000    0.6787850000000000    0.3504540000000000 F
   0.3212150000000000    0.6787850000000000    0.6495460000000000 F
   0.3410530000000000    0.6589469999999999    0.0000000000000000 F
   0.6895870000000000    0.3104130000000000    0.0000000000000000 F
   0.6879670000000000    0.3120330000000000    0.3408549999999990 F
   0.6879670000000000    0.3120330000000000    0.6591450000000000 F
   0.8058890000000000    0.8025420000000000    0.1693390000000000 F
   0.8058890000000000    0.8025420000000000    0.8306610000000000 F
   0.8119729999999999    0.8113610000000000    0.5000000000000000 F
