Y6 Ag6 O18
1.0
   3.2142805999999999   -5.5672994800000000    0.0000000900000000
   3.2142813600000002    5.5672999200000000   -0.0000000600000000
   0.0000000600000000   -0.0000001400000000   11.4776257299999997
Y Ag O
6 6 18
direct
   0.6666666900000000    0.3333337900000000    0.2342491100000000 Y
   0.3333334200000000    0.6666665500000000    0.7342190400000000 Y
   0.6666663700000001    0.3333332300000000    0.7342190100000000 Y
   0.3333335900000000    0.6666669000000000    0.2342493700000000 Y
   0.0000001800000000    0.0000001500000000    0.7723875300000000 Y
  -0.0000000700000000    0.0000000700000000    0.2724144600000000 Y
   0.6674344400000000   -0.0000017300000000    0.5012519700000000 Ag
   0.6674176100000000    0.6674180500000000    0.0012960300000000 Ag
   0.0000026100000000    0.3325857200000000    0.0012963000000000 Ag
  -0.0000026000000000    0.6674341800000000    0.5012519300000000 Ag
   0.3325626100000000    0.3325627200000000    0.5012517200000000 Ag
   0.3325853300000000    0.0000021500000000    0.0012963000000000 Ag
   0.6666655500000001    0.3333323500000000    0.0255405600000000 O
   0.3333344500000000    0.6666675800000000    0.5255092600000000 O
   0.6666676500000001    0.3333343500000000    0.5255095700000000 O
   0.3333324000000000    0.6666656400000001    0.0255407000000000 O
  -0.0000015000000000   -0.0000015300000000    0.9731354100000000 O
   0.0000015700000000    0.0000014000000000    0.4730985700000000 O
   0.3561395000000000    0.0000002700000000    0.8286230800000001 O
   0.3561354400000000    0.3561352100000000    0.3286229300000000 O
  -0.0000005900000000    0.6438644700000000    0.3286229000000000 O
   0.0000006600000000    0.3561398600000000    0.8286230100000000 O
   0.6438603900000001    0.6438606300000000    0.8286230400000000 O
   0.6438644500000000   -0.0000001400000000    0.3286229100000000 O
   0.3106734200000000   -0.0000000200000000    0.1734418200000000 O
   0.3106747100000000    0.3106745999999990    0.6734062600000000 O
  -0.0000001900000000    0.6893251000000000    0.6734062800000000 O
  -0.0000000400000000    0.3106734900000000    0.1734418700000000 O
   0.6893267700000000    0.6893268700000000    0.1734417800000000 O
   0.6893251800000000    0.0000000900000000    0.6734062900000000 O
