La4 V4 O12
1.0
   0.0000820500000000    5.6240521699999997    0.0079855900000000
  -0.0006662300000000    0.0105814400000000    7.7067013900000001
   5.5714436200000002   -0.0003242100000000   -0.0006159500000000
La V O
4 4 12
direct
   0.9643606800000000    0.7497428300000000    0.0084753600000000 La
   0.5355931500000000    0.2501704300000000    0.5083634100000000 La
   0.4643932900000000    0.7498375300000000    0.4916305500000000 La
   0.0356481700000000    0.2502513700000000    0.9915273500000000 La
   0.5000068200000000    0.5000027200000000    0.0000006300000000 V
   0.4999989500000000   -0.0000009800000000    0.0000008600000000 V
   0.0000024100000000    0.5000003100000000    0.4999989300000000 V
  -0.0000048300000000    0.0000007600000000    0.4999990900000000 V
   0.4887534000000000    0.2499986000000000    0.0686488700000000 O
   0.0112521500000000    0.7499916400000001    0.5687146300000000 O
   0.9887448999999990    0.2500072300000000    0.4312846600000000 O
   0.5112455300000001    0.7500017500000000    0.9313513999999991 O
   0.2083550400000000    0.9619250100000000    0.2161384999999990 O
   0.2916362600000000    0.0380486700000000    0.7160835500000000 O
   0.7169260800000000    0.5380111900000000    0.2912676200000000 O
   0.7830405700000000    0.4620317800000000    0.7912859000000000 O
   0.7916441700000000    0.0380748600000000    0.7838606000000000 O
   0.7083623700000000    0.9619547200000000    0.2839153700000000 O
   0.2830723000000000    0.4619890200000000    0.7087419400000000 O
   0.2169675999999990    0.5379605500000000    0.2087118000000000 O
