Li4 Mn4 O12
1.0
   5.0218230000000004    0.0000000000000000    0.0000000000000000
   0.0000000000000000    5.1540429999999997    0.0000000000000000
   0.0000000000000000    0.0000000000000000    7.0763449999999999
Li Mn O
4 4 12
direct
   0.9997990000000000    0.0546059999999990    0.2499990000000000 Li
   0.4997990000000000    0.4453939999999990    0.7500000000000000 Li
   0.5002010000000000    0.5546070000000000    0.2499990000000000 Li
   0.0002009999999990    0.9453950000000000    0.7500000000000000 Li
   0.5000000000000000    0.0000000000000000    0.0000000000000000 Mn
   0.0000000000000000    0.4999989999999990    0.0000000000000000 Mn
   0.0000000000000000    0.4999989999999990    0.5000000000000000 Mn
   0.5000000000000000    0.0000000000000000    0.5000000000000000 Mn
   0.8714020000000000    0.5526670000000000    0.7500000000000000 O
   0.3714020000000000    0.9473349999999990    0.2499990000000000 O
   0.6285980000000000    0.0526660000000000    0.7500000000000000 O
   0.1285980000000000    0.4473339999999990    0.2499990000000000 O
   0.6769140000000000    0.3167570000000000    0.4307430000000000 O
   0.1769140000000000    0.1832440000000000    0.5692579999999990 O
   0.8230860000000000    0.8167559999999990    0.0692580000000000 O
   0.3230860000000000    0.6832429999999990    0.9307420000000000 O
   0.6769140000000000    0.3167570000000000    0.0692580000000000 O
   0.1769140000000000    0.1832440000000000    0.9307420000000000 O
   0.3230860000000000    0.6832429999999990    0.5692579999999990 O
   0.8230860000000000    0.8167559999999990    0.4307430000000000 O
