K6 Ti6 I18
1.0
   7.0290400000000002  -12.1746540000000003    0.0000000000000000
   7.0290400000000002   12.1746540000000003    0.0000000000000000
   0.0000000000000000    0.0000000000000000    6.9653159999999996
K Ti I
6 6 18
direct
   0.9950920000000000    0.6788750000000000    0.4063070000000000 K
   0.0049080000000000    0.3211250000000000    0.9063070000000000 K
   0.6837829999999990    0.0049080000000000    0.4063070000000000 K
   0.3162169999999990    0.9950920000000000    0.9063070000000000 K
   0.3211250000000000    0.3162169999999990    0.4063070000000000 K
   0.6788750000000000    0.6837829999999990    0.9063070000000000 K
   0.0000000000000000    0.0000000000000000    0.6024590000000000 Ti
   0.3333330000000000    0.6666670000000000    0.7797240000000000 Ti
   0.0000000000000000    0.0000000000000000    0.1024590000000000 Ti
   0.3333330000000000    0.6666670000000000    0.2520150000000000 Ti
   0.6666670000000000    0.3333330000000000    0.2797240000000000 Ti
   0.6666670000000000    0.3333330000000000    0.7520150000000000 Ti
   0.2836320000000000    0.7962129999999999    0.5189640000000000 I
   0.1466770000000000    0.6149939999999990    0.0188400000000000 I
   0.3850059999999990    0.5316820000000000    0.0188400000000000 I
   0.0182710000000000    0.8449139999999991    0.8518230000000000 I
   0.8533229999999991    0.3850059999999990    0.5188400000000001 I
   0.8449139999999991    0.8266430000000000    0.3518230000000000 I
   0.7962129999999999    0.5125800000000000    0.0189639999999990 I
   0.5316820000000000    0.1466770000000000    0.5188400000000001 I
   0.1550860000000000    0.1733569999999990    0.8518230000000000 I
   0.5125800000000000    0.7163680000000000    0.5189640000000000 I
   0.8266430000000000    0.9817290000000000    0.8518230000000000 I
   0.7163680000000000    0.2037870000000000    0.0189639999999990 I
   0.2037870000000000    0.4874200000000000    0.5189640000000000 I
   0.6149939999999990    0.4683179999999990    0.5188400000000001 I
   0.1733569999999990    0.0182710000000000    0.3518230000000000 I
   0.9817290000000000    0.1550860000000000    0.3518230000000000 I
   0.4683179999999990    0.8533229999999991    0.0188400000000000 I
   0.4874200000000000    0.2836320000000000    0.0189639999999990 I
