Sr12 Ge12 O36
1.0
   8.6521365100000001   -0.0019036600000000    0.0066879900000000
   2.0706236900000001    9.3278540099999994    2.7528812399999998
   0.0037799100000000    0.0037057600000000   11.1675646499999992
Sr Ge O
12 12 36
direct
   0.6005753700000001    0.6490500600000000    0.5160615500000000 Sr
   0.7488432100000000    0.0021187000000000    0.5089350400000000 Sr
   0.9157429600000000    0.3510179000000000    0.3373703500000000 Sr
   0.9244195100000000    0.3424585900000000    0.9852381900000000 Sr
   0.5671977100000000    0.6479013000000000    0.1560426800000000 Sr
   0.3994246300000000    0.3509499400000000    0.4839384500000000 Sr
   0.2518185700000000    0.0020509000000000    0.9888287900000000 Sr
   0.4328022900000000    0.3520987000000000    0.8439573200000000 Sr
   0.2511567900000000    0.9978813000000000    0.4910649600000000 Sr
   0.0842570400000000    0.6489821000000000    0.6626296500000000 Sr
   0.7481814300000000    0.9979490999999990    0.0111712100000000 Sr
   0.0755804900000000    0.6575414100000000    0.0147618100000000 Sr
   0.2454154400000000    0.7051799800000000    0.2895398000000000 Ge
   0.8989760999999999    0.7038372800000000    0.3590888900000000 Ge
   0.7407077800000000    0.7024093300000001    0.8616291300000000 Ge
   0.7545845600000001    0.2948200200000000    0.7104602000000000 Ge
   0.1010249000000000    0.2961627200000000    0.6409121100000000 Ge
   0.6065879200000001    0.2917812400000000    0.2160984300000000 Ge
   0.5034827600000000    0.9948147500000000    0.7509412600000001 Ge
   0.3934120800000000    0.7082187600000001    0.7839015700000000 Ge
   0.2592922200000000    0.2975906700000000    0.1383708700000000 Ge
   0.0034215400000000    0.9938304900000000    0.2511515300000000 Ge
   0.9965784600000001    0.0061695100000000    0.7488484700000000 Ge
   0.4965172400000000    0.0051852500000000    0.2490587400000000 Ge
   0.4101025700000000    0.3918992500000000    0.1565206800000000 O
   0.2561927400000000    0.7405388300000000    0.1290691000000000 O
   0.7319376700000000    0.3979460600000000    0.1402158000000000 O
   0.2283448400000000    0.3977939100000000    0.6703580700000000 O
   0.2680623300000000    0.6020539400000000    0.8597842000000000 O
   0.8145878900000000    0.1286189800000000    0.6739622400000000 O
   0.0452917700000000    0.9126843700000000    0.6410609600000000 O
   0.6852262600000000    0.8676965300000000    0.7403856400000001 O
   0.0978359100000000    0.6058786800000000    0.3536548200000000 O
   0.0053248600000000    0.0847652100000000    0.0963534300000000 O
   0.9946751400000000    0.9152347900000000    0.9036465700000000 O
   0.4578890900000000    0.0855424100000000    0.5963367700000000 O
   0.5772376100000000    0.3968799400000000    0.6347052400000001 O
   0.3147737400000000    0.1323034700000000    0.2596143600000000 O
   0.7507927800000000    0.7392139100000000    0.0040223700000000 O
   0.1854121100000000    0.8713810200000001    0.3260377600000000 O
   0.0796682900000000    0.4040482900000000    0.1550850100000000 O
   0.3765931200000000    0.8726127500000000    0.8228630000000000 O
   0.6321110900000000    0.2631276300000000    0.3757648999999990 O
   0.9547082300000000    0.0873156300000000    0.3589390400000000 O
   0.9203317100000000    0.5959517100000000    0.8449149900000000 O
   0.2492072200000000    0.2607860900000000    0.9959776300000001 O
   0.1167459800000000    0.1323089600000000    0.7618230600000000 O
   0.8662541500000001    0.7401084800000001    0.5012974800000000 O
   0.6234068800000000    0.1273872500000000    0.1771370000000000 O
   0.4963875500000000    0.9132975300000000    0.1396520600000000 O
   0.9021640900000000    0.3941213200000000    0.6463451800000000 O
   0.7716551600000000    0.6022060900000000    0.3296419300000000 O
   0.1337458500000000    0.2598915200000000    0.4987025200000000 O
   0.3678889100000000    0.7368723700000001    0.6242350999999990 O
   0.4227623900000000    0.6031200600000000    0.3652947600000000 O
   0.5421109100000000    0.9144575900000000    0.4036632300000000 O
   0.5898974300000001    0.6081007500000000    0.8434793200000000 O
   0.7438072600000000    0.2594611700000000    0.8709309000000000 O
   0.5036124500000000    0.0867024700000000    0.8603479400000000 O
   0.8832540200000000    0.8676910400000000    0.2381769400000000 O
