K8 Si8 O24
1.0
   5.0442390000000001   -5.8991959999999999    0.0000000000000000
   5.0442390000000001    5.8991959999999999    0.0000000000000000
   0.0000000000000000    0.0000000000000000   11.2616090000000000
K Si O
8 8 24
direct
   0.9860180000000000    0.4860180000000000    0.2500000000000000 K
   0.5139819999999991    0.0139820000000000    0.7500000000000000 K
   0.0139820000000000    0.5139819999999991    0.7500000000000000 K
   0.4860180000000000    0.9860180000000000    0.2500000000000000 K
   0.3216120000000000    0.3216120000000000    0.4684569999999990 K
   0.6783880000000000    0.6783880000000000    0.5315430000000000 K
   0.1783880000000000    0.1783880000000000    0.9684569999999991 K
   0.8216120000000000    0.8216120000000000    0.0315430000000000 K
   0.9912420000000000    0.9912420000000000    0.3159710000000000 Si
   0.0087580000000000    0.0087580000000000    0.6840290000000000 Si
   0.5087579999999990    0.5087579999999990    0.8159710000000000 Si
   0.4912419999999990    0.4912419999999990    0.1840290000000000 Si
   0.1959459999999990    0.8040539999999990    0.5000000000000000 Si
   0.6959460000000000    0.3040540000000000    0.0000000000000000 Si
   0.8040539999999990    0.1959459999999990    0.5000000000000000 Si
   0.3040540000000000    0.6959460000000000    0.0000000000000000 Si
   0.0445609999999990    0.0445609999999990    0.1803550000000000 O
   0.9554389999999990    0.9554389999999990    0.8196450000000000 O
   0.4554390000000000    0.4554390000000000    0.6803549999999990 O
   0.5445610000000000    0.5445610000000000    0.3196450000000000 O
   0.1585909999999990    0.9371069999999990    0.3906779999999990 O
   0.0628929999999990    0.8414090000000000    0.6093219999999990 O
   0.5628930000000000    0.3414089999999990    0.8906780000000000 O
   0.6585909999999990    0.4371069999999990    0.1093219999999990 O
   0.8414090000000000    0.0628929999999990    0.6093219999999990 O
   0.9371069999999990    0.1585909999999990    0.3906779999999990 O
   0.4371069999999990    0.6585909999999990    0.1093219999999990 O
   0.3414089999999990    0.5628930000000000    0.8906780000000000 O
   0.8332269999999991    0.8332269999999991    0.2904180000000000 O
   0.1667730000000000    0.1667730000000000    0.7095819999999990 O
   0.6667729999999999    0.6667729999999999    0.7904180000000000 O
   0.3332270000000000    0.3332270000000000    0.2095820000000000 O
   0.1602710000000000    0.5996490000000000    0.4656180000000000 O
   0.4003509999999990    0.8397289999999999    0.5343820000000000 O
   0.9003510000000000    0.3397290000000000    0.9656180000000000 O
   0.6602709999999991    0.0996490000000000    0.0343819999999990 O
   0.8397289999999999    0.4003509999999990    0.5343820000000000 O
   0.5996490000000000    0.1602710000000000    0.4656180000000000 O
   0.0996490000000000    0.6602709999999991    0.0343819999999990 O
   0.3397290000000000    0.9003510000000000    0.9656180000000000 O
